Week Number,Username,Rank,Wins,Wins in First 25,Counted Wins,Core Rare,Core Epic,Core Legendary,Trial Rare,Trial Epic,Trial Legendary
44,幻,12,30,21,21,0,0,2,1,2,1
44,Krumpy Lumpkins,12,35,21,21,0,0,2,1,2,1
44,Ἄρης,12,21,21,21,0,0,2,0,2,1
44,[Mythic] revan,11,31,20,20,0,1,1,2,1,1
44,Charles Utkins,12,37,20,20,0,1,1,2,1,1
44,自然,12,37,20,20,0,1,1,2,1,1
44,Akilsainon,11,30,20,20,0,1,1,2,1,1
44,[tst] Freedan,12,52,20,20,0,1,1,2,1,1
44,Archangel1318,12,24,20,20,0,1,1,1,1,1
44,The38th,12,71,20,20,0,1,1,2,1,1
44,[Mythic] Unchained,12,46,20,20,0,1,1,2,1,1
44,[Mythic] Dragonstorm,12,37,20,20,0,1,1,2,1,1
44,[Mythic] Dookis,12,20,20,20,0,1,1,1,1,1
44,Godamnitleeroy,12,36,19,19,0,2,1,1,2,0
44,jama,12,33,19,19,0,2,1,1,2,0
44,[Pulse] Aldoc,12,35,19,19,0,2,1,1,2,0
44,Грумвол,11,23,19,19,0,2,1,0,2,0
44,Lezuziusz,12,19,19,19,0,2,1,0,2,0
44,Lilac,12,26,19,19,0,2,1,0,2,0
44,Woden,11,24,19,19,0,2,1,0,2,0
44,TREY,12,26,19,19,0,2,1,0,2,0
44,kigawakunto27,12,23,19,19,0,2,1,0,2,0
44,F1rst,9,24,19,18,0,3,0,0,2,0
44,noteboom,10,19,18,18,0,3,0,0,2,0
44,ZAFARI,9,30,18,18,0,3,0,1,2,0
44,StrongHands,9,18,18,18,0,3,0,0,2,0
44,[VET] Apollo,12,30,18,18,0,3,0,1,2,0
44,Veloth,12,24,18,18,0,3,0,0,2,0
44,Cerne,12,20,18,18,0,3,0,0,2,0
44,deepbanan4,10,21,18,18,0,3,0,0,2,0
44,carebear,12,30,18,18,0,3,0,1,2,0
44,superslim-NCP,9,35,18,18,0,3,0,1,2,0
44,XSITE,10,30,18,18,0,3,0,1,2,0
44,[Mythic] saints,12,30,18,18,0,3,0,1,2,0
44,imslo,9,20,18,18,0,3,0,0,2,0
44,r3hab,12,36,18,18,0,3,0,1,2,0
44,TheNotoriouszz,9,19,18,18,0,3,0,0,2,0
44,monStar,12,29,18,18,0,3,0,0,2,0
44,naynaysoosoo,9,24,18,18,0,3,0,0,2,0
44,OverM,8,34,20,17,1,2,0,1,2,0
44,quokku,8,24,20,17,1,2,0,0,2,0
44,MyReligion,8,28,18,17,1,2,0,0,2,0
44,Wezz,12,34,17,17,1,2,0,1,2,0
44,Ares,9,42,17,17,1,2,0,1,2,0
44,flex13,12,106,17,17,1,2,0,1,2,0
44,superslim,12,30,17,17,1,2,0,1,2,0
44,V-Hirvi,12,31,17,17,1,2,0,1,2,0
44,[tst]themudman,12,17,17,17,1,2,0,0,2,0
44,JoltzNinja,11,31,17,17,1,2,0,1,2,0
44,Mirage88,12,37,17,17,1,2,0,1,2,0
44,pornhub,10,19,17,17,1,2,0,0,2,0
44,[Mythic] Ducky,12,31,17,17,1,2,0,1,2,0
44,[Pulse] v2,11,35,17,17,1,2,0,1,2,0
44,GreenGuy,12,31,17,17,1,2,0,1,2,0
44,hERoIC15397,9,45,17,17,1,2,0,1,2,0
44,Salernik,10,17,17,17,1,2,0,0,2,0
44,drchronic01,9,17,17,17,1,2,0,0,2,0
44,little1985,11,21,17,17,1,2,0,0,2,0
44,白乌鸦,12,35,17,17,1,2,0,1,2,0
44,GUDecks.com,12,24,17,17,1,2,0,0,2,0
44,dalahad,10,30,17,17,1,2,0,1,2,0
44,Aragon,12,34,17,17,1,2,0,1,2,0
44,Pwned_By_A_Girl,7,22,18,16,0,3,0,1,1,0
44,memory1tb,7,18,18,16,0,3,0,1,1,0
44,skabber,7,20,17,16,0,3,0,1,1,0
44,Mr_Zinger,7,18,17,16,0,3,0,1,1,0
44,mmGRE3Nww,7,19,17,16,0,3,0,1,1,0
44,[tst]cautionfun,12,30,16,16,0,3,0,2,1,0
44,arisho,8,33,16,16,0,3,0,2,1,0
44,Tru+hSe3ker,11,20,16,16,0,3,0,1,1,0
44,Returner,8,16,16,16,0,3,0,1,1,0
44,D_Vitiate,11,46,16,16,0,3,0,2,1,0
44,Gandharva,12,16,16,16,0,3,0,1,1,0
44,[tst]bonkthatbutt,12,22,16,16,0,3,0,1,1,0
44,[Mythic] GGian,12,41,16,16,0,3,0,2,1,0
44,DRASTICxOUTLAW,7,16,16,16,0,3,0,1,1,0
44,✜,10,33,16,16,0,3,0,2,1,0
44,Sith,12,17,16,16,0,3,0,1,1,0
44,ozimodan,12,19,16,16,0,3,0,1,1,0
44,Scuffle,12,16,16,16,0,3,0,1,1,0
44,copperpitch,12,42,16,16,0,3,0,2,1,0
44,PlinytheEther,11,30,16,16,0,3,0,2,1,0
44,Zaklínač,5,16,16,16,1,2,0,2,0,0
44,MOCHET2020,6,17,17,15,1,2,0,2,0,0
44,Kselsi,5,16,16,15,1,2,0,2,0,0
44,TheUnknown,7,17,15,15,1,2,0,2,0,0
44,Unique.Esprit,9,16,15,15,1,2,0,2,0,0
44,Longy,12,70,15,15,1,2,0,3,0,0
44,DeHenne,8,18,15,15,1,2,0,2,0,0
44,PooNaniHunter,9,21,15,15,1,2,0,2,0,0
44,SpaceCoastKook,11,16,15,15,1,2,0,2,0,0
44,GodMode,8,20,15,15,1,2,0,2,0,0
44,HeresYourTollTroll,8,21,15,15,1,2,0,2,0,0
44,darkbluechain,9,27,15,15,1,2,0,2,0,0
44,Manymany,6,36,15,15,1,2,0,3,0,0
44,justinj0305,7,15,15,15,1,2,0,2,0,0
44,maovader888,6,23,15,15,1,2,0,2,0,0
44,furryballs,6,15,15,15,1,2,0,2,0,0
44,⌀,6,15,15,15,1,2,0,2,0,0
44,mzob,6,25,15,15,1,2,0,2,0,0
44,Nagibator777,12,32,15,15,1,2,0,3,0,0
44,DiegoFerreL,12,57,15,15,1,2,0,3,0,0
44,Naaaaaaaaaas,9,18,15,15,1,2,0,2,0,0
44,Yaratsu,7,16,15,15,1,2,0,2,0,0
44,marukaziri,7,15,15,15,1,2,0,2,0,0
44,Marigoth,8,35,15,15,1,2,0,3,0,0
44,♜ ♝ ♞ ♟,8,16,15,15,1,2,0,2,0,0
44,Beacze,8,31,15,15,1,2,0,3,0,0
44,Slye,9,15,15,15,1,2,0,2,0,0
44,sensebe,10,47,15,15,1,2,0,3,0,0
44,ﺴﺶﻈ,9,25,15,15,1,2,0,2,0,0
44,mike0182,10,29,15,15,1,2,0,2,0,0
44,Chamil,9,15,15,15,1,2,0,2,0,0
44,ferzspb,9,26,15,15,1,2,0,2,0,0
44,spacepirate,8,19,15,15,1,2,0,2,0,0
44,Djonbol1,8,35,15,15,1,2,0,3,0,0
44,mayablock,7,16,15,15,1,2,0,2,0,0
44,EricShawn,10,15,15,15,1,2,0,2,0,0
44,quantumgamble,10,57,15,15,1,2,0,3,0,0
44,Wades.ETH,12,38,15,15,1,2,0,3,0,0
44,Vany,12,32,15,15,1,2,0,3,0,0
44,LordDarktempler,10,31,15,15,1,2,0,3,0,0
44,stevecronin,7,36,15,15,1,2,0,3,0,0
44,LetMeLive,12,31,15,15,1,2,0,3,0,0
44,maulotov,12,15,15,15,1,2,0,2,0,0
44,Ayo,12,15,15,15,1,2,0,2,0,0
44,三日月,12,15,15,15,1,2,0,2,0,0
44,gou,12,15,15,15,1,2,0,2,0,0
44,Demons,12,57,15,15,1,2,0,3,0,0
44,trent_reznor,7,30,14,14,1,2,0,3,0,0
44,Dallas_barr,11,16,14,14,1,2,0,2,0,0
44,PleaseDontRopeMe,11,36,14,14,1,2,0,3,0,0
44,mydogzeus,11,14,14,14,1,2,0,2,0,0
44,Fantomasek,12,24,14,14,1,2,0,2,0,0
44,Resonator,11,14,14,14,1,2,0,2,0,0
44,densdensdens,7,14,14,14,1,2,0,2,0,0
44,gerundio,8,16,14,14,1,2,0,2,0,0
44,a29654776,8,23,14,14,1,2,0,2,0,0
44,Koyaanisqatsi,6,33,14,14,1,2,0,3,0,0
44,ěĝĝƑơơƴơůňĝ,9,36,14,14,1,2,0,3,0,0
44,Lord of Crypto,8,14,14,14,1,2,0,2,0,0
44,Omen #MetaHash,11,14,14,14,1,2,0,2,0,0
44,Lysander,12,21,14,14,1,2,0,2,0,0
44,Q,6,14,14,14,1,2,0,2,0,0
44,trilldebeest,10,20,14,14,1,2,0,2,0,0
44,superman313,10,39,14,14,1,2,0,3,0,0
44,ZENIMOON,8,29,14,14,1,2,0,2,0,0
44,Shibanqk,12,44,14,14,1,2,0,3,0,0
44,Waikikamukau,12,17,14,14,1,2,0,2,0,0
44,Makakka,8,14,14,14,1,2,0,2,0,0
44,reddybear,12,14,14,14,1,2,0,2,0,0
44,Brassica7,10,20,14,14,1,2,0,2,0,0
44,魔junior,12,17,14,14,1,2,0,2,0,0
44,Aziekial,8,27,14,14,1,2,0,2,0,0
44,sadisteck,10,14,14,14,1,2,0,2,0,0
44,Lucifer,12,27,14,14,1,2,0,2,0,0
44,__Razen__,8,15,14,14,1,2,0,2,0,0
44,apix3222,7,30,14,14,1,2,0,3,0,0
44,AnusMundi,9,14,14,14,1,2,0,2,0,0
44,Aadi1912,7,18,14,14,1,2,0,2,0,0
44,Slackov,10,15,14,14,1,2,0,2,0,0
44,TooEasy,12,17,14,14,1,2,0,2,0,0
44,Lifeboy,11,22,14,14,1,2,0,2,0,0
44,のんちゃん,12,57,14,14,1,2,0,3,0,0
44,TheHassy,11,18,14,14,1,2,0,2,0,0
44,ulcus,7,15,14,14,1,2,0,2,0,0
44,Bumboklaat,9,14,14,14,1,2,0,2,0,0
44,Ninjaturtle,8,16,14,14,1,2,0,2,0,0
44,Marginal,9,16,14,14,1,2,0,2,0,0
44,cryptoznewb,12,17,14,14,1,2,0,2,0,0
44,Soulsz16,1,20,19,13,2,1,0,1,0,0
44,cyrusthegreat,2,18,18,13,2,1,0,1,0,0
44,deadboy666,1,24,18,13,2,1,0,1,0,0
44,EricUnchained,1,32,17,13,2,1,0,2,0,0
44,Darkan00,1,24,17,13,2,1,0,1,0,0
44,shnoor,1,17,17,13,2,1,0,1,0,0
44,MisterTroll,3,70,17,13,2,1,0,2,0,0
44,zygeL,1,22,15,13,2,1,0,1,0,0
44,Lloyd88!,1,20,15,13,2,1,0,1,0,0
44,MariksAzova,1,26,15,13,2,1,0,1,0,0
44,wanderlust933,2,18,15,13,2,1,0,1,0,0
44,PrinceMing88,1,17,14,13,2,1,0,1,0,0
44,Dasrauscht,4,17,14,13,2,1,0,1,0,0
44,Zweinhander,1,14,14,13,2,1,0,1,0,0
44,USP12345,3,18,14,13,2,1,0,1,0,0
44,TSUKUTSUKU,1,16,14,13,2,1,0,1,0,0
44,Sandalwood,1,20,13,13,2,1,0,1,0,0
44,Herodot20,7,21,13,13,2,1,0,1,0,0
44,dobindubas,5,14,13,13,2,1,0,1,0,0
44,zomsie,9,32,13,13,2,1,0,2,0,0
44,Dactar,10,16,13,13,2,1,0,1,0,0
44,popovanton89,12,39,13,13,2,1,0,2,0,0
44,Tallarico,12,14,13,13,2,1,0,1,0,0
44,RedDeath,10,13,13,13,2,1,0,1,0,0
44,Nanich,6,25,13,13,2,1,0,1,0,0
44,[Twitch4Fun] Kaeserotor,11,14,13,13,2,1,0,1,0,0
44,roytutu,11,33,13,13,2,1,0,2,0,0
44,CuCu99,7,20,13,13,2,1,0,1,0,0
44,Valhalla,8,15,13,13,2,1,0,1,0,0
44,finansisn,8,23,13,13,2,1,0,1,0,0
44,X Æ A-12,9,41,13,13,2,1,0,2,0,0
44,slivenec,9,15,13,13,2,1,0,1,0,0
44,VonMises,12,13,13,13,2,1,0,1,0,0
44,pavlik74rus,6,14,13,13,2,1,0,1,0,0
44,Oshay,8,13,13,13,2,1,0,1,0,0
44,SniffOnMe,12,13,13,13,2,1,0,1,0,0
44,Rvu_Vsem_Duplo,7,15,13,13,2,1,0,1,0,0
44,Ckastigador,12,30,13,13,2,1,0,2,0,0
44,GazzaMine,1,13,13,13,2,1,0,1,0,0
44,k2h,11,32,13,13,2,1,0,2,0,0
44,moogmother,1,40,13,13,2,1,0,2,0,0
44,twisterdw,8,31,13,13,2,1,0,2,0,0
44,Dimuron,7,17,13,13,2,1,0,1,0,0
44,stoeckro,8,14,13,13,2,1,0,1,0,0
44,amin,8,56,13,13,2,1,0,2,0,0
44,_fireartist,8,14,13,13,2,1,0,1,0,0
44,Chosen,10,13,13,13,2,1,0,1,0,0
44,馬鹿じゃない,12,13,13,13,2,1,0,1,0,0
44,MrEagle,1,13,13,13,2,1,0,1,0,0
44,JohnWick,12,14,13,13,2,1,0,1,0,0
44,Mari0netik,5,25,13,13,2,1,0,1,0,0
44,blacksad,10,13,13,13,2,1,0,1,0,0
44,CarnivalBigTop,12,33,13,13,2,1,0,2,0,0
44,Isildur1,8,17,13,13,2,1,0,1,0,0
44,ReportMe,8,13,13,13,2,1,0,1,0,0
44,chilltown,8,16,13,13,2,1,0,1,0,0
44,ThereCameAHero,1,13,13,13,2,1,0,1,0,0
44,cicada,9,57,13,13,2,1,0,2,0,0
44,with,12,13,13,13,2,1,0,1,0,0
44,Zmay,11,13,13,13,2,1,0,1,0,0
44,eddie murphy,7,42,13,13,2,1,0,2,0,0
44,isaacfufu,8,19,13,13,2,1,0,1,0,0
44,neverytime,7,23,13,13,2,1,0,1,0,0
44,Sleeping Goat,9,15,13,13,2,1,0,1,0,0
44,mattyesq,11,18,13,13,2,1,0,1,0,0
44,coinage,8,17,13,13,2,1,0,1,0,0
44,chaoren,12,39,13,13,2,1,0,2,0,0
44,sigfriedCrypto,9,13,13,13,2,1,0,1,0,0
44,tommyegangan,5,14,13,13,2,1,0,1,0,0
44,dedemon,8,13,13,13,2,1,0,1,0,0
44,oniru,8,13,13,13,2,1,0,1,0,0
44,FoxCries,12,13,13,13,2,1,0,1,0,0
44,gothmaug,11,14,13,13,2,1,0,1,0,0
44,Wasper,12,29,13,13,2,1,0,1,0,0
44,Danbog,7,31,13,13,2,1,0,2,0,0
44,BlackMagic,9,15,12,12,2,1,0,1,0,0
44,Oleg326756,8,12,12,12,2,1,0,1,0,0
44,Cryptolemon,12,14,12,12,2,1,0,1,0,0
44,rl958,12,13,12,12,2,1,0,1,0,0
44,Jdeluxe,7,12,12,12,2,1,0,1,0,0
44,licefer3,1,12,12,12,2,1,0,1,0,0
44,Demolisher,11,18,12,12,2,1,0,1,0,0
44,sparky,11,31,12,12,2,1,0,2,0,0
44,AMRLordCoins,8,24,12,12,2,1,0,1,0,0
44,Damaged Gadget,12,13,12,12,2,1,0,1,0,0
44,wic3x5,7,12,12,12,2,1,0,1,0,0
44,zlaxor,12,33,12,12,2,1,0,2,0,0
44,+BodPud+,10,12,12,12,2,1,0,1,0,0
44,mamont123,8,12,12,12,2,1,0,1,0,0
44,Lewnatic,8,20,12,12,2,1,0,1,0,0
44,Dave,10,31,12,12,2,1,0,2,0,0
44,Cedric008,10,12,12,12,2,1,0,1,0,0
44,imbiimbi,7,36,12,12,2,1,0,2,0,0
44,wadamaruz,5,27,12,12,2,1,0,1,0,0
44,SpicoliAndreti,5,25,12,12,2,1,0,1,0,0
44,Yostari,11,18,12,12,2,1,0,1,0,0
44,Noice,8,30,12,12,2,1,0,2,0,0
44,Ege,1,12,12,12,2,1,0,1,0,0
44,Lorcalus,8,14,12,12,2,1,0,1,0,0
44,tactics1,9,12,12,12,2,1,0,1,0,0
44,verbalshadow,12,21,12,12,2,1,0,1,0,0
44,PaxMagnus,9,12,12,12,2,1,0,1,0,0
44,Azazell,6,13,12,12,2,1,0,1,0,0
44,Intergalactic,5,33,12,12,2,1,0,2,0,0
44,Stumpjumper,4,15,12,12,2,1,0,1,0,0
44,someonesomeone,10,17,12,12,2,1,0,1,0,0
44,HaruhiSuzumiya,8,15,12,12,2,1,0,1,0,0
44,Goder,5,26,12,12,2,1,0,1,0,0
44,Zulhakar,9,12,12,12,2,1,0,1,0,0
44,Mice Elf,7,18,12,12,2,1,0,1,0,0
44,Dimas_XT,8,12,12,12,2,1,0,1,0,0
44,robotdeniro,5,12,12,12,2,1,0,1,0,0
44,Jese,8,12,12,12,2,1,0,1,0,0
44,Gabriel,9,12,12,12,2,1,0,1,0,0
44,のんちゃん,11,16,12,12,2,1,0,1,0,0
44,Ritzen13,1,17,12,12,2,1,0,1,0,0
44,Zephuros,10,14,11,11,2,1,0,1,0,0
44,MaestroGR,7,20,11,11,2,1,0,1,0,0
44,[IRIS]Yusakman,9,11,11,11,2,1,0,1,0,0
44,SpookieSpace,1,11,11,11,2,1,0,1,0,0
44,Bielobog,3,12,11,11,2,1,0,1,0,0
44,SHINZON,7,12,11,11,2,1,0,1,0,0
44,ghostrestaurantlab_inago,8,11,11,11,2,1,0,1,0,0
44,Ota Benga,11,33,11,11,2,1,0,2,0,0
44,Buggy,10,11,11,11,2,1,0,1,0,0
44,Naio,9,16,11,11,2,1,0,1,0,0
44,juliusnakamoto,3,17,11,11,2,1,0,1,0,0
44,SteelRat,11,20,11,11,2,1,0,1,0,0
44,zur_rama111,2,30,11,11,2,1,0,2,0,0
44,KJ,7,11,11,11,2,1,0,1,0,0
44,Denker,12,11,11,11,2,1,0,1,0,0
44,BitcoinDictator,8,11,11,11,2,1,0,1,0,0
44,Biggz0522,7,12,11,11,2,1,0,1,0,0
44,UnjustOne,12,11,11,11,2,1,0,1,0,0
44,AwesomeSparkly,3,12,11,11,2,1,0,1,0,0
44,Gytareum,12,30,11,11,2,1,0,2,0,0
44,EtherKnight,8,11,11,11,2,1,0,1,0,0
44,ProfessorBellBottom,11,11,11,11,2,1,0,1,0,0
44,cmosc89,6,21,11,11,2,1,0,1,0,0
44,Sir Tango,12,11,11,11,2,1,0,1,0,0
44,ScroopyNoopers,4,11,11,11,2,1,0,1,0,0
44,TerribleALX,11,33,11,11,2,1,0,2,0,0
44,Des Petrovich,7,13,11,11,2,1,0,1,0,0
44,Mel0n102,9,11,11,11,2,1,0,1,0,0
44,SOLARmkd,12,11,11,11,2,1,0,1,0,0
44,Elyon,12,24,11,11,2,1,0,1,0,0
44,Yompster,9,35,11,11,2,1,0,2,0,0
44,wiwismile,2,13,11,11,2,1,0,1,0,0
44,mmax,8,11,11,11,2,1,0,1,0,0
44,Strikeroff,9,11,11,11,2,1,0,1,0,0
44,channnnn,10,11,11,11,2,1,0,1,0,0
44,gantarisa,8,11,11,11,2,1,0,1,0,0
44,mnsx,6,11,11,11,2,1,0,1,0,0
44,Zhiga,9,18,11,11,2,1,0,1,0,0
44,Oblongfitzoblong,11,11,11,11,2,1,0,1,0,0
44,ProAndyKiller,9,11,11,11,2,1,0,1,0,0
44,NER00OON,1,11,11,11,2,1,0,1,0,0
44,Sapien Jon,7,14,11,11,2,1,0,1,0,0
44,Riddlept,9,11,11,11,2,1,0,1,0,0
44,ZEALOT,9,13,11,11,2,1,0,1,0,0
44,pokerbjj,6,11,11,11,2,1,0,1,0,0
44,xcoil,7,23,11,11,2,1,0,1,0,0
44,swimlane72,9,31,11,11,2,1,0,2,0,0
44,&,8,17,11,11,2,1,0,1,0,0
44,trakzenator,1,11,11,11,2,1,0,1,0,0
44,intacrypt,5,12,11,11,2,1,0,1,0,0
44,krashnovr,11,11,11,11,2,1,0,1,0,0
44,Pain,7,11,11,11,2,1,0,1,0,0
44,theboogyman,9,11,11,11,2,1,0,1,0,0
44,.XXOTCXX.,1,22,11,11,2,1,0,1,0,0
44,нн,7,11,11,11,2,1,0,1,0,0
44,Robot0005,5,10,10,10,3,0,0,0,0,0
44,Moonpig,11,14,10,10,3,0,0,0,0,0
44,radi,12,10,10,10,3,0,0,0,0,0
44,SpaceCat,6,13,10,10,3,0,0,0,0,0
44,vladyser5554,7,10,10,10,3,0,0,0,0,0
44,Xiato,7,11,10,10,3,0,0,0,0,0
44,Fastkill,8,22,10,10,3,0,0,0,0,0
44,serthan,8,10,10,10,3,0,0,0,0,0
44,iluvsheep,8,11,10,10,3,0,0,0,0,0
44,KceoLine,9,10,10,10,3,0,0,0,0,0
44,Cananopie,9,10,10,10,3,0,0,0,0,0
44,DPRoberts99,9,14,10,10,3,0,0,0,0,0
44,Manigoldo,4,10,10,10,3,0,0,0,0,0
44,Suicide_Hunter,7,10,10,10,3,0,0,0,0,0
44,Eltukko21,7,10,10,10,3,0,0,0,0,0
44,energy dorink,8,10,10,10,3,0,0,0,0,0
44,Stede,11,12,10,10,3,0,0,0,0,0
44,Blockfisher,7,10,10,10,3,0,0,0,0,0
44,RavenGuard,12,38,10,10,3,0,0,1,0,0
44,smirnawf,11,10,10,10,3,0,0,0,0,0
44,LordBrian,6,10,10,10,3,0,0,0,0,0
44,blockchaingames.fun,9,10,10,10,3,0,0,0,0,0
44,Starvin,12,10,10,10,3,0,0,0,0,0
44,DudeGuy420,9,10,10,10,3,0,0,0,0,0
44,z4tm99vr,7,13,10,10,3,0,0,0,0,0
44,Megawarez,11,10,10,10,3,0,0,0,0,0
44,FriendlySpy,9,16,10,10,3,0,0,0,0,0
44,Kaashuni,9,10,10,10,3,0,0,0,0,0
44,kentsutse,5,10,10,10,3,0,0,0,0,0
44,Bitcoin,11,9,9,9,3,0,0,0,0,0
44,RedRuggles5,8,29,9,9,3,0,0,0,0,0
44,crypto-lite91,12,44,9,9,3,0,0,1,0,0
44,Jahura_Banu,2,41,9,9,3,0,0,1,0,0
44,henningju,8,9,9,9,3,0,0,0,0,0
44,Zeleios,9,9,9,9,3,0,0,0,0,0
44,NAGIBATOR,8,9,9,9,3,0,0,0,0,0
44,Keigan2cool,1,9,9,9,3,0,0,0,0,0
44,bkositzke,8,10,9,9,3,0,0,0,0,0
44,Starboy,12,9,9,9,3,0,0,0,0,0
44,angrygnat,9,18,9,9,3,0,0,0,0,0
44,onlys,4,10,9,9,3,0,0,0,0,0
44,grille67,7,24,9,9,3,0,0,0,0,0
44,BiggestBiceptuis,8,31,9,9,3,0,0,1,0,0
44,Hastal Havista,7,9,9,9,3,0,0,0,0,0
44,BasVanSpanker,9,35,9,9,3,0,0,1,0,0
44,Hermes,10,9,9,9,3,0,0,0,0,0
44,Mhmed,5,25,9,9,3,0,0,0,0,0
44,karlito636,6,9,9,9,3,0,0,0,0,0
44,Deil713009,5,15,9,9,3,0,0,0,0,0
44,Sir Ike Moesha Broflovski,10,39,9,9,3,0,0,1,0,0
44,AlienWeapon,11,16,9,9,3,0,0,0,0,0
44,fice,10,9,9,9,3,0,0,0,0,0
44,Diman007,7,11,9,9,3,0,0,0,0,0
44,fluffyhag,10,22,9,9,3,0,0,0,0,0
44,The7tard,4,13,9,9,3,0,0,0,0,0
44,dad,9,11,9,9,3,0,0,0,0,0
44,shadowstrike42,8,14,9,9,3,0,0,0,0,0
44,☭,8,9,9,9,3,0,0,0,0,0
44,miojo_esperto,12,9,9,9,3,0,0,0,0,0
44,strange,7,14,9,9,3,0,0,0,0,0
44,AdventureStory,8,12,9,9,3,0,0,0,0,0
44,Tafut Aga,5,14,9,9,3,0,0,0,0,0
44,Veganic,3,9,9,9,3,0,0,0,0,0
44,Utar Vicar of Pebbles,7,9,9,9,3,0,0,0,0,0
44,Helga999,8,9,9,9,3,0,0,0,0,0
44,Bitsavage,7,9,9,9,3,0,0,0,0,0
44,Moneybags,9,9,9,9,3,0,0,0,0,0
44,DestrucTorT,11,32,8,8,3,0,0,1,0,0
44,maelstrom4880,4,8,8,8,3,0,0,0,0,0
44,£,9,8,8,8,3,0,0,0,0,0
44,gecheverria86,8,8,8,8,3,0,0,0,0,0
44,mezastel,1,8,8,8,3,0,0,0,0,0
44,sarim atif,3,8,8,8,3,0,0,0,0,0
44,Drummerboyj,10,8,8,8,3,0,0,0,0,0
44,Hellvent,9,8,8,8,3,0,0,0,0,0
44,jakiro12,6,8,8,8,3,0,0,0,0,0
44,Areraneе,1,8,8,8,3,0,0,0,0,0
44,DisgustingHuman,10,16,8,8,3,0,0,0,0,0
44,GiaLoTa,1,8,8,8,3,0,0,0,0,0
44,LegndRicky,9,8,8,8,3,0,0,0,0,0
44,Excidium,9,8,8,8,3,0,0,0,0,0
44,ZhiBo,4,10,8,8,3,0,0,0,0,0
44,OlyaVL11,4,18,8,8,3,0,0,0,0,0
44,⅋,6,9,8,8,3,0,0,0,0,0
44,Channel9,3,8,8,8,3,0,0,0,0,0
44,Oxn,9,34,8,8,3,0,0,1,0,0
44,0x7d31apuz,10,67,8,8,3,0,0,1,0,0
44,ForlornHope,7,8,8,8,3,0,0,0,0,0
44,KairosMGW,1,8,8,8,3,0,0,0,0,0
44,freedom2020,7,8,8,8,3,0,0,0,0,0
44,emiliomorles,7,8,8,8,3,0,0,0,0,0
44,teawaterwire,6,8,8,8,3,0,0,0,0,0
44,Zeqro,6,8,8,8,3,0,0,0,0,0
44,iflion,8,8,8,8,3,0,0,0,0,0
44,sebstar123,6,8,8,8,3,0,0,0,0,0
44,MekMirek,5,8,8,8,3,0,0,0,0,0
44,Swen 122,7,9,8,8,3,0,0,0,0,0
44,levelup,12,8,8,8,3,0,0,0,0,0
44,Pidda1994,10,32,8,8,3,0,0,1,0,0
44,Sadness,1,8,8,8,3,0,0,0,0,0
44,MustangKirby,8,35,8,8,3,0,0,1,0,0
44,goldemon,8,8,8,8,3,0,0,0,0,0
44,ill_coin,4,8,8,8,3,0,0,0,0,0
44,bacoor  hbwallet,7,8,8,8,3,0,0,0,0,0
44,iantrebeljahr,7,8,8,8,3,0,0,0,0,0
44,foggybottom,6,8,8,8,3,0,0,0,0,0
44,PijusMagnificus,8,8,8,8,3,0,0,0,0,0
44,PCoq,11,30,8,8,3,0,0,1,0,0
44,Nyktimené,7,8,8,8,3,0,0,0,0,0
44,KhanVovan,5,10,7,7,2,0,0,0,0,0
44,mohu,12,7,7,7,2,0,0,0,0,0
44,BallNChained,8,7,7,7,2,0,0,0,0,0
44,vanish,1,7,7,7,2,0,0,0,0,0
44,YetiDotETH,10,7,7,7,2,0,0,0,0,0
44,Kietelaar,8,10,7,7,2,0,0,0,0,0
44,اکویٹا,12,30,7,7,2,0,0,1,0,0
44,jonekk,8,7,7,7,2,0,0,0,0,0
44,JohnConner,1,8,7,7,2,0,0,0,0,0
44,お金猫,12,7,7,7,2,0,0,0,0,0
44,SheNut,8,21,7,7,2,0,0,0,0,0
44,TheRealGinger,1,7,7,7,2,0,0,0,0,0
44,fwibb.jmm,3,7,7,7,2,0,0,0,0,0
44,DaCatzMeow,9,7,7,7,2,0,0,0,0,0
44,Yanicroft,1,7,7,7,2,0,0,0,0,0
44,[Taiga] VOLK,12,7,7,7,2,0,0,0,0,0
44,Spartakush,5,7,7,7,2,0,0,0,0,0
44,John McClane,12,7,7,7,2,0,0,0,0,0
44,reymon,9,7,7,7,2,0,0,0,0,0
44,Bane3201,1,7,7,7,2,0,0,0,0,0
44,kovanova,8,7,7,7,2,0,0,0,0,0
44,Surface2AirMissle,11,7,7,7,2,0,0,0,0,0
44,Talawanda,1,7,7,7,2,0,0,0,0,0
44,Mlexon,5,7,7,7,2,0,0,0,0,0
44,Lyffione,1,7,7,7,2,0,0,0,0,0
44,Hm47goat,5,13,7,7,2,0,0,0,0,0
44,macbaren,3,7,7,7,2,0,0,0,0,0
44,$,9,65,7,7,2,0,0,1,0,0
44,VIZI,8,7,7,7,2,0,0,0,0,0
44,Yurecsuper,6,10,7,7,2,0,0,0,0,0
44,Lucky112N,3,7,7,7,2,0,0,0,0,0
44,KLMJ,8,7,7,7,2,0,0,0,0,0
44,yo.achim,5,7,7,7,2,0,0,0,0,0
44,RoadRunner42,6,6,6,6,2,0,0,0,0,0
44,papalopodus,7,6,6,6,2,0,0,0,0,0
44,TrapCard,5,6,6,6,2,0,0,0,0,0
44,Byob75,11,6,6,6,2,0,0,0,0,0
44,Rievserg,8,6,6,6,2,0,0,0,0,0
44,Ultra-Ice,4,6,6,6,2,0,0,0,0,0
44,GamingWithCrypto,4,6,6,6,2,0,0,0,0,0
44,-Neoken-,5,6,6,6,2,0,0,0,0,0
44,Little_cuckoo,9,6,6,6,2,0,0,0,0,0
44,rob31rob31,7,6,6,6,2,0,0,0,0,0
44,Wpaladin,4,6,6,6,2,0,0,0,0,0
44,kiisumiisu,1,6,6,6,2,0,0,0,0,0
44,QuantumTarantino,5,6,6,6,2,0,0,0,0,0
44,Foxtail,4,6,6,6,2,0,0,0,0,0
44,Isildurrr,2,29,6,6,2,0,0,0,0,0
44,skankhunt42,7,6,6,6,2,0,0,0,0,0
44,Stake Hunter,10,14,6,6,2,0,0,0,0,0
44,♪♪♪♪♪,10,36,6,6,2,0,0,1,0,0
44,Headsnap,8,6,6,6,2,0,0,0,0,0
44,jcsc1989,7,6,6,6,2,0,0,0,0,0
44,EatUrLivers,7,6,6,6,2,0,0,0,0,0
44,MAC,7,7,6,6,2,0,0,0,0,0
44,barmaley2886,1,6,6,6,2,0,0,0,0,0
44,WilliamLee,6,6,6,6,2,0,0,0,0,0
44,w/c,6,6,6,6,2,0,0,0,0,0
44,Snottysnake,8,6,6,6,2,0,0,0,0,0
44,Masha H2,9,30,6,6,2,0,0,1,0,0
44,AIDAN420,6,6,6,6,2,0,0,0,0,0
44,FSadinoX,4,7,6,6,2,0,0,0,0,0
44,DrippSinatra,5,6,6,6,2,0,0,0,0,0
44,asil75,4,6,6,6,2,0,0,0,0,0
44,OnikriZe,1,6,6,6,2,0,0,0,0,0
44,Justinkase,9,18,6,6,2,0,0,0,0,0
44,btz4u,9,5,5,5,2,0,0,0,0,0
44,romansito,6,5,5,5,2,0,0,0,0,0
44,Alukino69,1,5,5,5,2,0,0,0,0,0
44,MarijnStevens,3,5,5,5,2,0,0,0,0,0
44,n!ghtl!ght,10,5,5,5,2,0,0,0,0,0
44,Fl0oRidha,6,5,5,5,2,0,0,0,0,0
44,cambocleve,10,5,5,5,2,0,0,0,0,0
44,colliseum,10,5,5,5,2,0,0,0,0,0
44,Gunimade,1,5,5,5,2,0,0,0,0,0
44,WildCard0341,7,5,5,5,2,0,0,0,0,0
44,Blain,7,5,5,5,2,0,0,0,0,0
44,El Dios Desencadenado,8,5,5,5,2,0,0,0,0,0
44,DeusEM,8,5,5,5,2,0,0,0,0,0
44,Mage Zyron,9,5,5,5,2,0,0,0,0,0
44,Chiantia,9,5,5,5,2,0,0,0,0,0
44,Staff Phyre,3,5,5,5,2,0,0,0,0,0
44,haneabelow,4,40,5,5,2,0,0,1,0,0
44,MarcheG,4,15,5,5,2,0,0,0,0,0
44,maragigayan,8,5,5,5,2,0,0,0,0,0
44,GOLDRAGON,11,5,5,5,2,0,0,0,0,0
44,ArrkinPrimis,3,5,5,5,2,0,0,0,0,0
44,~o0GiN0o~,8,5,5,5,2,0,0,0,0,0
44,thatkidsblack,7,5,5,5,2,0,0,0,0,0
44,Coldsnap,12,5,5,5,2,0,0,0,0,0
44,Varick,9,5,5,5,2,0,0,0,0,0
44,jcrypto,5,11,5,5,2,0,0,0,0,0
44,ranab998,6,5,5,5,2,0,0,0,0,0
44,highkitties@gmail.com,6,5,5,5,2,0,0,0,0,0
44,athlee,10,5,5,5,2,0,0,0,0,0
44,Ptothehyphen,11,5,5,5,2,0,0,0,0,0
44,Dikarb89,4,5,5,5,2,0,0,0,0,0
44,PrinceH,8,5,5,5,2,0,0,0,0,0
44,Jinimage,7,5,5,5,2,0,0,0,0,0
44,CrazyShaman,7,5,5,5,2,0,0,0,0,0
44,PeterD,9,5,5,5,2,0,0,0,0,0
44,Acecompac,8,5,5,5,2,0,0,0,0,0
44,Shinjiz,7,5,5,5,2,0,0,0,0,0
44,rare,10,5,5,5,2,0,0,0,0,0
44,gabrielhagard,6,5,5,5,2,0,0,0,0,0
44,CryptoFree,6,5,5,5,2,0,0,0,0,0
44,PeakABoo,12,5,5,5,2,0,0,0,0,0
44,-=ÐDrîve~ßyE€=-,4,5,5,5,2,0,0,0,0,0
44,PHadzhiev,10,5,5,5,2,0,0,0,0,0
44,nuclearmonk,7,4,4,4,1,0,0,0,0,0
44,gu.cards,9,4,4,4,1,0,0,0,0,0
44,TenTon01,1,4,4,4,1,0,0,0,0,0
44,Uizy0822,1,4,4,4,1,0,0,0,0,0
44,RasmusGrove,8,4,4,4,1,0,0,0,0,0
44,MGSPlasmaSnake,2,4,4,4,1,0,0,0,0,0
44,alkofullon,7,4,4,4,1,0,0,0,0,0
44,NovaFlare,5,4,4,4,1,0,0,0,0,0
44,Saint777,1,4,4,4,1,0,0,0,0,0
44,Cryptotastic,11,4,4,4,1,0,0,0,0,0
44,StarChild,8,4,4,4,1,0,0,0,0,0
44,kleber483,4,4,4,4,1,0,0,0,0,0
44,KsinGame,7,4,4,4,1,0,0,0,0,0
44,cryptokcmo,1,7,4,4,1,0,0,0,0,0
44,waffleaber,3,4,4,4,1,0,0,0,0,0
44,karjackk,1,4,4,4,1,0,0,0,0,0
44,margolisna,7,4,4,4,1,0,0,0,0,0
44,Maxz,9,4,4,4,1,0,0,0,0,0
44,Chain0tater,5,4,4,4,1,0,0,0,0,0
44,Rox,5,4,4,4,1,0,0,0,0,0
44,EvgenyyS,3,4,4,4,1,0,0,0,0,0
44,Yell,6,4,4,4,1,0,0,0,0,0
44,NoT TodaY,10,4,4,4,1,0,0,0,0,0
44,LadyMusica,6,4,4,4,1,0,0,0,0,0
44,Roberto23,7,4,4,4,1,0,0,0,0,0
44,COiNNOiSSEUR,11,4,4,4,1,0,0,0,0,0
44,CaptainMurika,4,4,4,4,1,0,0,0,0,0
44,gohm,9,4,4,4,1,0,0,0,0,0
44,jimTurbo,7,4,4,4,1,0,0,0,0,0
44,King_Liamidas,7,4,4,4,1,0,0,0,0,0
44,MaxMatheus,8,4,4,4,1,0,0,0,0,0
44,moon,7,4,4,4,1,0,0,0,0,0
44,bushido,5,4,4,4,1,0,0,0,0,0
44,Cryanar,3,4,4,4,1,0,0,0,0,0
44,Avatar1188,4,4,4,4,1,0,0,0,0,0
44,spaceinvader,11,4,4,4,1,0,0,0,0,0
44,Moderntaker,1,4,4,4,1,0,0,0,0,0
44,Natussus,4,4,4,4,1,0,0,0,0,0
44,Syonidehyde1165,6,4,4,4,1,0,0,0,0,0
44,jiiiklikli,5,4,4,4,1,0,0,0,0,0
44,AddaxHD,8,4,4,4,1,0,0,0,0,0
44,unruized,8,3,3,3,1,0,0,0,0,0
44,BL4NKE7,9,3,3,3,1,0,0,0,0,0
44,Jelly2010,7,3,3,3,1,0,0,0,0,0
44,Abletom,11,3,3,3,1,0,0,0,0,0
44,Keat34,7,3,3,3,1,0,0,0,0,0
44,POOKIDS420,6,3,3,3,1,0,0,0,0,0
44,SimKonNik,7,3,3,3,1,0,0,0,0,0
44,RdrFerreira,4,3,3,3,1,0,0,0,0,0
44,GardzeWami,1,3,3,3,1,0,0,0,0,0
44,snak3.eth,4,3,3,3,1,0,0,0,0,0
44,Cdg,4,3,3,3,1,0,0,0,0,0
44,Adels Asumi,6,3,3,3,1,0,0,0,0,0
44,DJTWREX27,1,3,3,3,1,0,0,0,0,0
44,Tribone,7,3,3,3,1,0,0,0,0,0
44,aleks42316,11,3,3,3,1,0,0,0,0,0
44,Michael3,10,3,3,3,1,0,0,0,0,0
44,NASQWERTY,1,3,3,3,1,0,0,0,0,0
44,Wizardof0z,11,3,3,3,1,0,0,0,0,0
44,Apexlion,7,3,3,3,1,0,0,0,0,0
44,Gypo,7,3,3,3,1,0,0,0,0,0
44,ForeverAverage,9,3,3,3,1,0,0,0,0,0
44,vogimania,6,3,3,3,1,0,0,0,0,0
44,PeriodBloodMouthWash,7,3,3,3,1,0,0,0,0,0
44,restb777,8,3,3,3,1,0,0,0,0,0
44,Khronosick,7,3,3,3,1,0,0,0,0,0
44,Babooshka,4,21,3,3,1,0,0,0,0,0
44,force_of_nature,11,3,3,3,1,0,0,0,0,0
44,Acryos der Graue,5,3,3,3,1,0,0,0,0,0
44,Kodes.au,1,3,3,3,1,0,0,0,0,0
44,Schnauzerlover,1,3,3,3,1,0,0,0,0,0
44,Indigotribe,2,3,3,3,1,0,0,0,0,0
44,Samudabamu,9,3,3,3,1,0,0,0,0,0
44,sidais,6,3,3,3,1,0,0,0,0,0
44,Storm Toad,6,3,3,3,1,0,0,0,0,0
44,Olymp,6,3,3,3,1,0,0,0,0,0
44,shadowstep33,6,3,3,3,1,0,0,0,0,0
44,masanari,8,3,3,3,1,0,0,0,0,0
44,Labelkill,5,3,3,3,1,0,0,0,0,0
44,Aliona,8,3,3,3,1,0,0,0,0,0
44,AncientCrypto,4,3,3,3,1,0,0,0,0,0
44,WizardGospel420,1,3,3,3,1,0,0,0,0,0
44,Treborsawi,9,3,3,3,1,0,0,0,0,0
44,Mr_*M*E*A*T*,10,3,3,3,1,0,0,0,0,0
44,Ragnor8476,8,3,3,3,1,0,0,0,0,0
44,concordman,4,3,3,3,1,0,0,0,0,0
44,🦁,12,3,3,3,1,0,0,0,0,0
44,Jonathan Fullerton,5,3,3,3,1,0,0,0,0,0
44,Borosbeatdown,1,3,3,3,1,0,0,0,0,0
44,SamWise88,8,2,2,2,0,0,0,0,0,0
44,narres2252,6,2,2,2,0,0,0,0,0,0
44,nautilus73,8,2,2,2,0,0,0,0,0,0
44,menelvagor,8,2,2,2,0,0,0,0,0,0
44,blue65,1,2,2,2,0,0,0,0,0,0
44,Diego.colnago,5,2,2,2,0,0,0,0,0,0
44,Amzinglyrwarded,5,2,2,2,0,0,0,0,0,0
44,Bengal176,7,2,2,2,0,0,0,0,0,0
44,7figurecrypto.com,6,2,2,2,0,0,0,0,0,0
44,DaoChemist,6,2,2,2,0,0,0,0,0,0
44,Wilmerfud,4,2,2,2,0,0,0,0,0,0
44,Konohime,8,2,2,2,0,0,0,0,0,0
44,vampirexgenesis,7,2,2,2,0,0,0,0,0,0
44,Jimmer,12,2,2,2,0,0,0,0,0,0
44,toomey779,7,2,2,2,0,0,0,0,0,0
44,ltdan,12,2,2,2,0,0,0,0,0,0
44,rRestless,4,2,2,2,0,0,0,0,0,0
44,Bobmynobster,4,2,2,2,0,0,0,0,0,0
44,lowrider64,8,2,2,2,0,0,0,0,0,0
44,digitamz,12,2,2,2,0,0,0,0,0,0
44,stachu,8,2,2,2,0,0,0,0,0,0
44,Zedd Ruinstar,1,2,2,2,0,0,0,0,0,0
44,�[DT] Drakon-NCP,7,2,2,2,0,0,0,0,0,0
44,Caligulae,10,2,2,2,0,0,0,0,0,0
44,Nbecerril53o,1,3,2,2,0,0,0,0,0,0
44,InfamousYetti,4,2,2,2,0,0,0,0,0,0
44,Urbanoid,11,2,2,2,0,0,0,0,0,0
44,Sergee25,7,2,2,2,0,0,0,0,0,0
44,fullerideas,5,2,2,2,0,0,0,0,0,0
44,PuzzleMazl,8,2,2,2,0,0,0,0,0,0
44,Lazaroth,7,2,2,2,0,0,0,0,0,0
44,MSantis,2,2,2,2,0,0,0,0,0,0
44,nmkenji,4,2,2,2,0,0,0,0,0,0
44,fd204,10,2,2,2,0,0,0,0,0,0
44,axordahaxor,9,2,2,2,0,0,0,0,0,0
44,RevzCards,8,2,2,2,0,0,0,0,0,0
44,obama,9,2,2,2,0,0,0,0,0,0
44,くりくりぷとぷと,12,2,2,2,0,0,0,0,0,0
44,Odin,12,2,2,2,0,0,0,0,0,0
44,saphst4r,10,2,2,2,0,0,0,0,0,0
44,jetjockey,8,2,2,2,0,0,0,0,0,0
44,Stepuptotheplate2,4,2,2,2,0,0,0,0,0,0
44,KoTZ,12,2,2,2,0,0,0,0,0,0
44,Edgecaser,8,2,2,2,0,0,0,0,0,0
44,NOXIOUS,10,2,2,2,0,0,0,0,0,0
44,sl1200mk5,8,2,2,2,0,0,0,0,0,0
44,SneezyDwarf,9,2,2,2,0,0,0,0,0,0
44,Ootsg,9,2,2,2,0,0,0,0,0,0
44,Badadoose,3,2,2,2,0,0,0,0,0,0
44,bang39,11,2,2,2,0,0,0,0,0,0
44,JiSen1996,4,2,2,2,0,0,0,0,0,0
44,bauntidm,7,2,2,2,0,0,0,0,0,0
44,rekomain,5,2,2,2,0,0,0,0,0,0
44,TORGOVIY MARKET,5,2,2,2,0,0,0,0,0,0
44,Superpassteque,1,2,2,2,0,0,0,0,0,0
44,BexRab,6,2,2,2,0,0,0,0,0,0
44,adriendarki,7,2,2,2,0,0,0,0,0,0
44,AmericanIcarus,10,2,2,2,0,0,0,0,0,0
44,Digitt,10,2,2,2,0,0,0,0,0,0
44,nihao888,10,2,2,2,0,0,0,0,0,0
44,CH1P7,6,2,2,2,0,0,0,0,0,0
44,▲,6,2,2,2,0,0,0,0,0,0
44,hiroppy,8,2,2,2,0,0,0,0,0,0
44,ancestralrecall,12,2,2,2,0,0,0,0,0,0
44,Ax-S.C.B,4,2,2,2,0,0,0,0,0,0
44,SonGokuBg,10,2,2,2,0,0,0,0,0,0
44,Giga_bastart,3,2,2,2,0,0,0,0,0,0
44,GEX,6,2,2,2,0,0,0,0,0,0
44,mami3crypto,3,2,2,2,0,0,0,0,0,0
44,Airwin-apollo,6,2,2,2,0,0,0,0,0,0
44,w0t,9,2,2,2,0,0,0,0,0,0
44,dezilver,11,2,2,2,0,0,0,0,0,0
44,Gumi,8,2,2,2,0,0,0,0,0,0
44,Dav3,5,2,2,2,0,0,0,0,0,0
44,the.chief,4,1,1,1,0,0,0,0,0,0
44,Tdr46,6,1,1,1,0,0,0,0,0,0
44,Randalinsky,7,1,1,1,0,0,0,0,0,0
44,eul0gy,3,1,1,1,0,0,0,0,0,0
44,shock,11,1,1,1,0,0,0,0,0,0
44,Blackbird,5,1,1,1,0,0,0,0,0,0
44,Holofern,8,1,1,1,0,0,0,0,0,0
44,vinnyp34,5,1,1,1,0,0,0,0,0,0
44,wiim,7,1,1,1,0,0,0,0,0,0
44,Chompetto,8,1,1,1,0,0,0,0,0,0
44,ACDC,5,1,1,1,0,0,0,0,0,0
44,Lollerskates,9,1,1,1,0,0,0,0,0,0
44,doppiabeo,6,1,1,1,0,0,0,0,0,0
44,ddddddsdfsdf,1,1,1,1,0,0,0,0,0,0
44,EdOnCouch,9,1,1,1,0,0,0,0,0,0
44,sergiu,1,1,1,1,0,0,0,0,0,0
44,b4nks.ch,5,1,1,1,0,0,0,0,0,0
44,Jackimilk,5,1,1,1,0,0,0,0,0,0
44,Brymir_Power,1,3,1,1,0,0,0,0,0,0
44,Sinaxs123321,1,1,1,1,0,0,0,0,0,0
44,shablagoo,1,1,1,1,0,0,0,0,0,0
44,Balthazar,7,1,1,1,0,0,0,0,0,0
44,gvnench8qz,1,1,1,1,0,0,0,0,0,0
44,Bozie,5,1,1,1,0,0,0,0,0,0
44,日日日 NCP,12,1,1,1,0,0,0,0,0,0
44,Galragg,10,1,1,1,0,0,0,0,0,0
44,Bioautomaton,6,1,1,1,0,0,0,0,0,0
44,Kiikiaskell,1,1,1,1,0,0,0,0,0,0
44,allon,1,1,1,1,0,0,0,0,0,0
44,Krilanz93,8,1,1,1,0,0,0,0,0,0
44,Ledger94,1,1,1,1,0,0,0,0,0,0
44,console,5,1,1,1,0,0,0,0,0,0
44,WitchGirlTamara,5,1,1,1,0,0,0,0,0,0
44,unimpressive,8,1,1,1,0,0,0,0,0,0
44,Acolyte,9,1,1,1,0,0,0,0,0,0
44,timotheus,1,1,1,1,0,0,0,0,0,0
44,catello78,7,1,1,1,0,0,0,0,0,0
44,megro,5,1,1,1,0,0,0,0,0,0
44,Petergamer,6,1,1,1,0,0,0,0,0,0
44,Blackjewell,5,1,1,1,0,0,0,0,0,0
44,ThotHtheAtlanteaN,9,1,1,1,0,0,0,0,0,0
44,DamianGT,1,1,1,1,0,0,0,0,0,0
44,killerdealer,1,1,1,1,0,0,0,0,0,0
44,Artemus,4,1,1,1,0,0,0,0,0,0
44,z z Z,8,1,1,1,0,0,0,0,0,0
44,yatyatling,1,1,1,1,0,0,0,0,0,0
44,coSMIX,8,1,1,1,0,0,0,0,0,0
44,BuidloBagins,12,1,1,1,0,0,0,0,0,0
44,GoblinKing,12,1,1,1,0,0,0,0,0,0
44,matt690,7,1,1,1,0,0,0,0,0,0
44,Killax01,1,1,1,1,0,0,0,0,0,0
44,Pure_Evil,5,1,1,1,0,0,0,0,0,0
44,shadowkill{599],4,1,1,1,0,0,0,0,0,0
44,tengchiang,9,1,1,1,0,0,0,0,0,0
44,BADMINTONERO16,2,1,1,1,0,0,0,0,0,0
44,akndr2142,7,1,1,1,0,0,0,0,0,0
44,Tribone,8,1,1,1,0,0,0,0,0,0
44,bobcryptolover,6,1,1,1,0,0,0,0,0,0
44,MurphyMcManus,3,1,1,1,0,0,0,0,0,0
44,Y8Z,9,1,1,1,0,0,0,0,0,0
44,Achilles64,3,1,1,1,0,0,0,0,0,0
44,Sai,4,1,1,1,0,0,0,0,0,0
44,Slay.C.G,1,1,1,1,0,0,0,0,0,0
44,Dmitry_Jma,1,1,1,1,0,0,0,0,0,0
44,Adamanty,7,1,1,1,0,0,0,0,0,0
44,fuck_all,8,1,1,1,0,0,0,0,0,0
44,Noshlarr,10,1,1,1,0,0,0,0,0,0
44,DinizBR,5,1,1,1,0,0,0,0,0,0
44,Zalogoff1980,1,1,1,1,0,0,0,0,0,0
44,Sapient1,9,1,1,1,0,0,0,0,0,0
44,IronBones,1,1,1,1,0,0,0,0,0,0
44,Zippety7,1,1,1,1,0,0,0,0,0,0
44,jefferson,8,1,1,1,0,0,0,0,0,0
44,Countrymater,3,2,1,1,0,0,0,0,0,0
44,Kurtific,8,1,1,1,0,0,0,0,0,0
44,GabZzzz,8,1,1,1,0,0,0,0,0,0
44,phreakerx,7,1,1,1,0,0,0,0,0,0
44,Expired,9,1,1,1,0,0,0,0,0,0
44,DeMoN666,12,1,1,1,0,0,0,0,0,0
44,TrainTicket,5,1,1,1,0,0,0,0,0,0
44,jdeath123,2,1,1,1,0,0,0,0,0,0
44,Andres,4,1,1,1,0,0,0,0,0,0
44,Rayde,6,1,1,1,0,0,0,0,0,0
44,Navies91,1,1,1,1,0,0,0,0,0,0
44,Raapst70,6,1,1,1,0,0,0,0,0,0
44,killerKirill,6,1,1,1,0,0,0,0,0,0
44,exesyy18,1,1,1,1,0,0,0,0,0,0
44,Kappacino,11,1,1,1,0,0,0,0,0,0
44,Master_Elliott,3,1,1,1,0,0,0,0,0,0
44,CrSoVPro,1,1,1,1,0,0,0,0,0,0
44,Dochrnix,9,1,1,1,0,0,0,0,0,0
44,YSAWallet,1,1,1,1,0,0,0,0,0,0
44,God Of War,8,1,1,1,0,0,0,0,0,0
44,N0fx,8,1,1,1,0,0,0,0,0,0
44,playergu,7,1,1,1,0,0,0,0,0,0
44,Dancing_shep,9,1,1,1,0,0,0,0,0,0
44,IAMZERG9,5,1,1,1,0,0,0,0,0,0
45,[tst]cautionfun,12,30,23,23,0,0,3,2,0,2
45,DiegoFerreL,12,71,22,22,0,0,3,1,0,2
45,Wezz,11,30,21,21,0,0,2,1,2,1
45,Charles Utkins,12,49,21,21,0,0,2,1,2,1
45,[Mythic] Ducky,12,38,21,21,0,0,2,1,2,1
45,nshrd,12,31,21,21,0,0,2,1,2,1
45,SpaceCoastKook,12,40,20,20,0,1,1,2,1,1
45,[tst]themudman,12,30,20,20,0,1,1,2,1,1
45,carebear,11,30,20,20,0,1,1,2,1,1
45,Moonpig,10,32,19,19,0,2,1,1,2,0
45,z3ll,12,19,19,19,0,2,1,0,2,0
45,rl958,12,24,19,19,0,2,1,0,2,0
45,jama,12,30,19,19,0,2,1,1,2,0
45,Apollo,12,19,19,19,0,2,1,0,2,0
45,V-Hirvi,12,46,19,19,0,2,1,1,2,0
45,Lysander,12,34,19,19,0,2,1,1,2,0
45,Грумвол,12,19,19,19,0,2,1,0,2,0
45,Shibanqk,12,33,19,19,0,2,1,1,2,0
45,[tst]bonkthatbutt,12,19,19,19,0,2,1,0,2,0
45,[Mythic] Unchained,12,34,19,19,0,2,1,1,2,0
45,Nagibator777,9,30,20,18,0,3,0,1,2,0
45,Isildur,9,30,20,18,0,3,0,1,2,0
45,PleaseDontRopeMe,9,35,19,18,0,3,0,1,2,0
45,flex13,12,32,18,18,0,3,0,1,2,0
45,RedDeath,10,18,18,18,0,3,0,0,2,0
45,Mirage88,12,49,18,18,0,3,0,1,2,0
45,Sir Tango,12,22,18,18,0,3,0,0,2,0
45,Gandharva,12,30,18,18,0,3,0,1,2,0
45,SniffOnMe,11,21,18,18,0,3,0,0,2,0
45,verbalshadow,11,20,18,18,0,3,0,0,2,0
45,Krumpy Lumpkins,12,35,18,18,0,3,0,1,2,0
45,三十九,11,18,18,18,0,3,0,0,2,0
45,GUDecks.com,12,34,18,18,0,3,0,1,2,0
45,Kosgameslp,9,18,18,18,0,3,0,0,2,0
45,Surface2AirMissle,8,19,19,17,1,2,0,0,2,0
45,Nininiao,8,19,18,17,1,2,0,0,2,0
45,Fantomasek,11,37,17,17,1,2,0,1,2,0
45,Godamnitleeroy,12,34,17,17,1,2,0,1,2,0
45,WalkThisWay,11,17,17,17,1,2,0,0,2,0
45,Manymany,8,42,17,17,1,2,0,1,2,0
45,zlaxor,12,25,17,17,1,2,0,0,2,0
45,n!ghtl!ght,8,22,17,17,1,2,0,0,2,0
45,Starboy,9,29,17,17,1,2,0,0,2,0
45,JoltzNinja,11,34,17,17,1,2,0,1,2,0
45,اکویٹا,11,31,17,17,1,2,0,1,2,0
45,ZENIMOON,9,20,17,17,1,2,0,0,2,0
45,KceoLine,8,31,17,17,1,2,0,1,2,0
45,BasVanSpanker,8,22,17,17,1,2,0,0,2,0
45,Yompster,8,28,17,17,1,2,0,0,2,0
45,mike0182,11,22,17,17,1,2,0,0,2,0
45,ногоонзалуу,12,30,17,17,1,2,0,1,2,0
45,Lilac,12,17,17,17,1,2,0,0,2,0
45,TheNachoSamurai,12,42,17,17,1,2,0,1,2,0
45,The38th,12,42,17,17,1,2,0,1,2,0
45,ozimodan,12,18,17,17,1,2,0,0,2,0
45,Wades.ETH,12,51,17,17,1,2,0,1,2,0
45,Scuffle,12,20,17,17,1,2,0,0,2,0
45,TREY,12,31,17,17,1,2,0,1,2,0
45,monStar,12,17,17,17,1,2,0,0,2,0
45,krashnovr,10,17,17,17,1,2,0,0,2,0
45,chaoren,12,44,17,17,1,2,0,1,2,0
45,RavenGuard,12,30,17,17,1,2,0,1,2,0
45,gothmaug,11,18,17,17,1,2,0,0,2,0
45,Ayo,12,19,17,17,1,2,0,0,2,0
45,Aragon,12,33,17,17,1,2,0,1,2,0
45,trent_reznor,7,28,19,16,0,3,0,1,1,0
45,Thirdman,7,30,18,16,0,3,0,2,1,0
45,⌀,7,18,18,16,0,3,0,1,1,0
45,JohnTravolta,7,17,17,16,0,3,0,1,1,0
45,fluffyhag,7,21,17,16,0,3,0,1,1,0
45,Dallas_barr,12,16,16,16,0,3,0,1,1,0
45,Longy,12,33,16,16,0,3,0,2,1,0
45,ghostrestaurantlab_inago,7,16,16,16,0,3,0,1,1,0
45,galdames2,7,16,16,16,0,3,0,1,1,0
45,Naio,8,20,16,16,0,3,0,1,1,0
45,bkositzke,11,27,16,16,0,3,0,1,1,0
45,自然,12,34,16,16,0,3,0,2,1,0
45,[tst] Freedan,12,30,16,16,0,3,0,2,1,0
45,Sparkyknight,7,16,16,16,0,3,0,1,1,0
45,Mr_Zinger,8,16,16,16,0,3,0,1,1,0
45,Androssi,10,16,16,16,0,3,0,1,1,0
45,Elyon,11,19,16,16,0,3,0,1,1,0
45,stoeckro,8,16,16,16,0,3,0,1,1,0
45,amin,10,23,16,16,0,3,0,1,1,0
45,[Mythic] GGian,12,31,16,16,0,3,0,2,1,0
45,魔junior,12,16,16,16,0,3,0,1,1,0
45,Lucifer,12,17,16,16,0,3,0,1,1,0
45,ø,12,16,16,16,0,3,0,1,1,0
45,athlee,8,16,16,16,0,3,0,1,1,0
45,Aadi1912,7,36,16,16,0,3,0,2,1,0
45,Stede,11,16,16,16,0,3,0,1,1,0
45,のんちゃん,12,37,16,16,0,3,0,2,1,0
45,[Mythic] Dragonstorm,12,32,16,16,0,3,0,2,1,0
45,Ἄρης,12,16,16,16,0,3,0,1,1,0
45,Þ,11,16,16,16,0,3,0,1,1,0
45,eddie murphy,8,22,16,16,0,3,0,1,1,0
45,CopperPitch,12,30,16,16,0,3,0,2,1,0
45,cryptoznewb,11,19,16,16,0,3,0,1,1,0
45,maulotov,12,20,16,16,0,3,0,1,1,0
45,FoxCries,12,25,16,16,0,3,0,1,1,0
45,benyasu,12,16,16,16,0,3,0,1,1,0
45,SonGokuBg,9,16,16,16,0,3,0,1,1,0
45,jackow80,8,31,16,16,0,3,0,2,1,0
45,gou,12,18,16,16,0,3,0,1,1,0
45,Bozie,5,22,20,15,1,2,0,2,0,0
45,Zweinhander,5,17,17,15,1,2,0,2,0,0
45,deadboy666,6,34,17,15,1,2,0,3,0,0
45,wadamaruz,6,22,16,15,1,2,0,2,0,0
45,TheFireWithin,5,43,16,15,1,2,0,3,0,0
45,POOKIDS420,7,24,15,15,1,2,0,2,0,0
45,sparky,10,33,15,15,1,2,0,3,0,0
45,AMRLordCoins,7,19,15,15,1,2,0,2,0,0
45,X Æ A-12,7,17,15,15,1,2,0,2,0,0
45,Akilsainon,12,15,15,15,1,2,0,2,0,0
45,eMeS,8,19,15,15,1,2,0,2,0,0
45,cambocleve,9,15,15,15,1,2,0,2,0,0
45,o-o,5,20,15,15,1,2,0,2,0,0
45,ArzrA,9,15,15,15,1,2,0,2,0,0
45,Ckastigador,12,19,15,15,1,2,0,2,0,0
45,k2h,12,15,15,15,1,2,0,2,0,0
45,♪♪♪♪♪,9,17,15,15,1,2,0,2,0,0
45,John McClane,12,15,15,15,1,2,0,2,0,0
45,Noshlarr,10,15,15,15,1,2,0,2,0,0
45,ZEALOT,10,18,15,15,1,2,0,2,0,0
45,Swen 122,5,15,15,15,1,2,0,2,0,0
45,swimlane72,9,23,15,15,1,2,0,2,0,0
45,🦁,12,21,15,15,1,2,0,2,0,0
45,stevecronin,7,17,15,15,1,2,0,2,0,0
45,LetMeLive,12,16,15,15,1,2,0,2,0,0
45,bacoor  hbwallet,7,15,15,15,1,2,0,2,0,0
45,のんちゃん,12,15,15,15,1,2,0,2,0,0
45,MrMousey,7,15,15,15,1,2,0,2,0,0
45,DestrucTorT,9,32,14,14,1,2,0,3,0,0
45,[IRIS]Yusakman,8,16,14,14,1,2,0,2,0,0
45,dobindubas,6,18,14,14,1,2,0,2,0,0
45,zomsie,7,14,14,14,1,2,0,2,0,0
45,Ares,9,33,14,14,1,2,0,3,0,0
45,Bielobog,5,15,14,14,1,2,0,2,0,0
45,PooNaniHunter,9,14,14,14,1,2,0,2,0,0
45,Resonator,12,16,14,14,1,2,0,2,0,0
45,7figurecrypto.com,6,14,14,14,1,2,0,2,0,0
45,TenTon01,5,15,14,14,1,2,0,2,0,0
45,Dragonlord626,5,14,14,14,1,2,0,2,0,0
45,NAGIBATOR,9,17,14,14,1,2,0,2,0,0
45,£,9,20,14,14,1,2,0,2,0,0
45,CuCu99,8,31,14,14,1,2,0,3,0,0
45,finansisn,9,16,14,14,1,2,0,2,0,0
45,[Mythic] revan,12,15,14,14,1,2,0,2,0,0
45,UnjustOne,11,27,14,14,1,2,0,2,0,0
45,mamont123,9,14,14,14,1,2,0,2,0,0
45,Jayshawn,8,14,14,14,1,2,0,2,0,0
45,Veloth,12,14,14,14,1,2,0,2,0,0
45,Oshay,8,14,14,14,1,2,0,2,0,0
45,restb777,8,23,14,14,1,2,0,2,0,0
45,TerribleJIexa,10,38,14,14,1,2,0,3,0,0
45,Waikikamukau,12,38,14,14,1,2,0,3,0,0
45,Marigoth,9,15,14,14,1,2,0,2,0,0
45,Excidium,8,42,14,14,1,2,0,3,0,0
45,OverM,11,31,14,14,1,2,0,3,0,0
45,JohnWick,12,16,14,14,1,2,0,2,0,0
45,blacksad,9,14,14,14,1,2,0,2,0,0
45,Oxn,7,31,14,14,1,2,0,3,0,0
45,__Razen__,8,14,14,14,1,2,0,2,0,0
45,AlienWeapon,9,14,14,14,1,2,0,2,0,0
45,kovanova,7,16,14,14,1,2,0,2,0,0
45,gohm,11,16,14,14,1,2,0,2,0,0
45,くりくりぷとぷと,11,14,14,14,1,2,0,2,0,0
45,Isildur1,9,14,14,14,1,2,0,2,0,0
45,DRASTICxOUTLAW,8,18,14,14,1,2,0,2,0,0
45,Zhiga,8,18,14,14,1,2,0,2,0,0
45,Djonbol1,8,32,14,14,1,2,0,3,0,0
45,✜CryptoDoC✜,12,46,14,14,1,2,0,3,0,0
45,Slackov,11,18,14,14,1,2,0,2,0,0
45,shadowstrike42,5,15,14,14,1,2,0,2,0,0
45,☭,8,14,14,14,1,2,0,2,0,0
45,MaxMatheus,8,16,14,14,1,2,0,2,0,0
45,Sapien Jon,7,19,14,14,1,2,0,2,0,0
45,quokku,10,15,14,14,1,2,0,2,0,0
45,Dikarb89,7,14,14,14,1,2,0,2,0,0
45,Blank Never Loses,12,23,14,14,1,2,0,2,0,0
45,²,9,14,14,14,1,2,0,2,0,0
45,Kselsi,8,14,14,14,1,2,0,2,0,0
45,sigfriedCrypto,10,35,14,14,1,2,0,3,0,0
45,little1985,11,17,14,14,1,2,0,2,0,0
45,Pain,6,28,14,14,1,2,0,2,0,0
45,白乌鸦,12,29,14,14,1,2,0,2,0,0
45,dalahad,11,14,14,14,1,2,0,2,0,0
45,FriendlySpy,8,17,14,14,1,2,0,2,0,0
45,СОЛАР-МКД,11,17,14,14,1,2,0,2,0,0
45,xanndex,1,30,23,13,2,1,0,2,0,0
45,baraboshka,1,20,20,13,2,1,0,1,0,0
45,Pstrong99,3,25,17,13,2,1,0,1,0,0
45,Hioga,1,17,17,13,2,1,0,1,0,0
45,magic1993,1,20,16,13,2,1,0,1,0,0
45,Sir_Nautheim,1,16,16,13,2,1,0,1,0,0
45,nerd2188,1,19,16,13,2,1,0,1,0,0
45,tetezinha,1,24,16,13,2,1,0,1,0,0
45,ElPatron,1,15,15,13,2,1,0,1,0,0
45,Motortor,1,17,15,13,2,1,0,1,0,0
45,optimism101,3,15,15,13,2,1,0,1,0,0
45,popeichwald,1,18,15,13,2,1,0,1,0,0
45,Meditate_More,2,20,15,13,2,1,0,1,0,0
45,Doxrain,1,24,14,13,2,1,0,1,0,0
45,Nbecerril53o,4,20,14,13,2,1,0,1,0,0
45,Dmitry_Jma,1,14,14,13,2,1,0,1,0,0
45,Brathering,2,19,14,13,2,1,0,1,0,0
45,BlackMagic,8,19,13,13,2,1,0,1,0,0
45,Herodot20,5,13,13,13,2,1,0,1,0,0
45,RedRuggles5,8,23,13,13,2,1,0,1,0,0
45,Puspin,6,31,13,13,2,1,0,2,0,0
45,oldemate,4,13,13,13,2,1,0,1,0,0
45,Toad Smoke,1,23,13,13,2,1,0,1,0,0
45,RoMkA737,1,16,13,13,2,1,0,1,0,0
45,PatrickG,12,13,13,13,2,1,0,1,0,0
45,Damaged Gadget,9,14,13,13,2,1,0,1,0,0
45,zur_rama111,5,31,13,13,2,1,0,2,0,0
45,adal111,3,41,13,13,2,1,0,2,0,0
45,Epic,2,13,13,13,2,1,0,1,0,0
45,ěĝĝƑơơƴơůňĝ,10,30,13,13,2,1,0,2,0,0
45,Returner,10,31,13,13,2,1,0,2,0,0
45,Lewnatic,8,23,13,13,2,1,0,1,0,0
45,Kyuhisan,1,13,13,13,2,1,0,1,0,0
45,Saint777,7,34,13,13,2,1,0,2,0,0
45,お金猫,12,13,13,13,2,1,0,1,0,0
45,rob31rob31,7,14,13,13,2,1,0,1,0,0
45,matt690,7,13,13,13,2,1,0,1,0,0
45,馬鹿じゃない,11,13,13,13,2,1,0,1,0,0
45,NoT TodaY,10,45,13,13,2,1,0,2,0,0
45,DPRoberts99,7,16,13,13,2,1,0,1,0,0
45,sadisteck,10,13,13,13,2,1,0,1,0,0
45,PaxMagnus,9,30,13,13,2,1,0,2,0,0
45,jaswaleska,6,13,13,13,2,1,0,1,0,0
45,spacepirate,10,16,13,13,2,1,0,1,0,0
45,Strikeroff,9,18,13,13,2,1,0,1,0,0
45,channnnn,9,30,13,13,2,1,0,2,0,0
45,fice,9,13,13,13,2,1,0,1,0,0
45,Diman007,7,15,13,13,2,1,0,1,0,0
45,Afronizer,5,47,13,13,2,1,0,2,0,0
45,hERoIC15397,11,35,13,13,2,1,0,2,0,0
45,imslo,12,19,13,13,2,1,0,1,0,0
45,USP12345,6,25,13,13,2,1,0,1,0,0
45,[Mythic] VVH,12,13,13,13,2,1,0,1,0,0
45,entling,1,32,13,13,2,1,0,2,0,0
45,LordDarktempler,12,33,13,13,2,1,0,2,0,0
45,mattyesq,10,30,13,13,2,1,0,2,0,0
45,smirnawf,9,15,13,13,2,1,0,1,0,0
45,PCoq,11,29,13,13,2,1,0,1,0,0
45,Kaashuni,8,13,13,13,2,1,0,1,0,0
45,dezilver,11,15,13,13,2,1,0,1,0,0
45,Justinkase,8,43,13,13,2,1,0,2,0,0
45,Properkid,1,16,13,13,2,1,0,1,0,0
45,Berezovysok,6,21,12,12,2,1,0,1,0,0
45,mydogzeus,11,18,12,12,2,1,0,1,0,0
45,densdensdens,9,12,12,12,2,1,0,1,0,0
45,LaughinGhost,7,21,12,12,2,1,0,1,0,0
45,HeresYourTollTroll,8,15,12,12,2,1,0,1,0,0
45,idncrypto67,1,28,12,12,2,1,0,1,0,0
45,popovanton89,12,34,12,12,2,1,0,2,0,0
45,wic3x5,9,15,12,12,2,1,0,1,0,0
45,Konohime,7,12,12,12,2,1,0,1,0,0
45,arisho,9,25,12,12,2,1,0,1,0,0
45,Tru+hSe3ker,12,15,12,12,2,1,0,1,0,0
45,777mihman777,10,34,12,12,2,1,0,2,0,0
45,furryballs,7,12,12,12,2,1,0,1,0,0
45,Koyaanisqatsi,7,17,12,12,2,1,0,1,0,0
45,Drummerboyj,9,24,12,12,2,1,0,1,0,0
45,Fastkill,7,12,12,12,2,1,0,1,0,0
45,DisgustingHuman,10,25,12,12,2,1,0,1,0,0
45,slivenec,9,17,12,12,2,1,0,1,0,0
45,LCHammer,12,12,12,12,2,1,0,1,0,0
45,Dave,10,12,12,12,2,1,0,1,0,0
45,spoonza904,1,22,12,12,2,1,0,1,0,0
45,manfromfire,5,13,12,12,2,1,0,1,0,0
45,[Pulse] Aldoc,12,12,12,12,2,1,0,1,0,0
45,colliseum,9,12,12,12,2,1,0,1,0,0
45,crusty jane,6,12,12,12,2,1,0,1,0,0
45,FaZeHammerCurls,7,12,12,12,2,1,0,1,0,0
45,serthan,7,18,12,12,2,1,0,1,0,0
45,Noice,10,12,12,12,2,1,0,1,0,0
45,Sink,5,18,12,12,2,1,0,1,0,0
45,DaCatzMeow,9,39,12,12,2,1,0,2,0,0
45,☺,8,59,12,12,2,1,0,2,0,0
45,reddybear,12,12,12,12,2,1,0,1,0,0
45,Gsimple2000,4,13,12,12,2,1,0,1,0,0
45,paprikman,1,12,12,12,2,1,0,1,0,0
45,Eltukko21,8,17,12,12,2,1,0,1,0,0
45,energy dorink,9,12,12,12,2,1,0,1,0,0
45,ReportMe,8,14,12,12,2,1,0,1,0,0
45,Stumpjumper,4,12,12,12,2,1,0,1,0,0
45,Odin,12,12,12,12,2,1,0,1,0,0
45,pauk6666,6,42,12,12,2,1,0,2,0,0
45,MAC,6,16,12,12,2,1,0,1,0,0
45,dad,7,12,12,12,2,1,0,1,0,0
45,mayablock,8,21,12,12,2,1,0,1,0,0
45,TooEasy,12,12,12,12,2,1,0,1,0,0
45,AdventureStory,5,15,12,12,2,1,0,1,0,0
45,albtraummonster,7,12,12,12,2,1,0,1,0,0
45,r3hab,12,32,12,12,2,1,0,2,0,0
45,xcoil,12,22,12,12,2,1,0,1,0,0
45,Masha H2,6,12,12,12,2,1,0,1,0,0
45,CryptoJesse,6,18,12,12,2,1,0,1,0,0
45,三日月,12,12,12,12,2,1,0,1,0,0
45,Demolisher,11,30,11,11,2,1,0,2,0,0
45,gerundio,9,17,11,11,2,1,0,1,0,0
45,John Macafee,8,11,11,11,2,1,0,1,0,0
45,noteboom,12,11,11,11,2,1,0,1,0,0
45,ZAFARI,12,16,11,11,2,1,0,1,0,0
45,roytutu,12,39,11,11,2,1,0,2,0,0
45,AwesomeSparkly,5,12,11,11,2,1,0,1,0,0
45,Zorongo,6,11,11,11,2,1,0,1,0,0
45,ValBelair,7,11,11,11,2,1,0,1,0,0
45,doudou2201,10,43,11,11,2,1,0,2,0,0
45,D_Vitiate,11,16,11,11,2,1,0,1,0,0
45,Cedric008,10,11,11,11,2,1,0,1,0,0
45,Gypo,7,11,11,11,2,1,0,1,0,0
45,DthRevan,8,11,11,11,2,1,0,1,0,0
45,Yaratsu,8,11,11,11,2,1,0,1,0,0
45,Apathy_217,3,11,11,11,2,1,0,1,0,0
45,force_of_nature,10,17,11,11,2,1,0,1,0,0
45,twisterdw,8,23,11,11,2,1,0,1,0,0
45,Yanicroft,4,11,11,11,2,1,0,1,0,0
45,[Pulse] v2,12,14,11,11,2,1,0,1,0,0
45,COiNNOiSSEUR,9,18,11,11,2,1,0,1,0,0
45,Zalogoff1980,3,11,11,11,2,1,0,1,0,0
45,gantarisa,8,11,11,11,2,1,0,1,0,0
45,XSITE,10,33,11,11,2,1,0,2,0,0
45,$,8,57,11,11,2,1,0,2,0,0
45,Vany,12,11,11,11,2,1,0,1,0,0
45,ulcus,8,11,11,11,2,1,0,1,0,0
45,Snottysnake,9,11,11,11,2,1,0,1,0,0
45,isaacfufu,8,11,11,11,2,1,0,1,0,0
45,Glimer421,1,11,11,11,2,1,0,1,0,0
45,MyReligion,9,13,11,11,2,1,0,1,0,0
45,Ninjaturtle,8,16,11,11,2,1,0,1,0,0
45,CrazyShaman,6,11,11,11,2,1,0,1,0,0
45,intacrypt,6,22,11,11,2,1,0,1,0,0
45,Dimas_XT,7,13,11,11,2,1,0,1,0,0
45,VIZI,8,11,11,11,2,1,0,1,0,0
45,Utar Vicar of Pebbles,6,11,11,11,2,1,0,1,0,0
45,Dancing_shep,9,11,11,11,2,1,0,1,0,0
45,Danbog,8,12,11,11,2,1,0,1,0,0
45,PHadzhiev,9,11,11,11,2,1,0,1,0,0
45,Makakka,9,19,11,11,2,1,0,1,0,0
45,VladTheGod,5,19,11,11,2,1,0,1,0,0
45,MaestroGR,8,10,10,10,3,0,0,0,0,0
45,abbyluuu,5,10,10,10,3,0,0,0,0,0
45,Leidenfrost,8,21,10,10,3,0,0,0,0,0
45,Nanich,8,10,10,10,3,0,0,0,0,0
45,darkbluechain,10,20,10,10,3,0,0,0,0,0
45,SteelRat,11,13,10,10,3,0,0,0,0,0
45,Fiofan,11,11,10,10,3,0,0,0,0,0
45,mzob,7,16,10,10,3,0,0,0,0,0
45,angrygnat,8,30,10,10,3,0,0,1,0,0
45,Rievserg,8,11,10,10,3,0,0,0,0,0
45,cmosc89,6,10,10,10,3,0,0,0,0,0
45,SheNut,5,10,10,10,3,0,0,0,0,0
45,sargecasey,10,12,10,10,3,0,0,0,0,0
45,Yostari,11,20,10,10,3,0,0,0,0,0
45,Beacze,8,30,10,10,3,0,0,1,0,0
45,Slye,10,11,10,10,3,0,0,0,0,0
45,sensebe,10,67,10,10,3,0,0,1,0,0
45,ﺴﺶﻈ,10,23,10,10,3,0,0,0,0,0
45,⅋,3,14,10,10,3,0,0,0,0,0
45,Roberto23,6,10,10,10,3,0,0,0,0,0
45,apix3222,7,22,10,10,3,0,0,0,0,0
45,BancoDeCrypto,6,12,10,10,3,0,0,0,0,0
45,King_Liamidas,6,10,10,10,3,0,0,0,0,0
45,Salernik,11,10,10,10,3,0,0,0,0,0
45,TheHassy,12,15,10,10,3,0,0,0,0,0
45,Goder,7,12,10,10,3,0,0,0,0,0
45,Akiro,1,13,10,10,3,0,0,0,0,0
45,Pidda1994,11,10,10,10,3,0,0,0,0,0
45,bouncetree,1,16,10,10,3,0,0,0,0,0
45,coinage,9,18,10,10,3,0,0,0,0,0
45,goldemon,7,10,10,10,3,0,0,0,0,0
45,Regulus86,6,18,10,10,3,0,0,0,0,0
45,robotdeniro,7,15,10,10,3,0,0,0,0,0
45,Yurecsuper,8,10,10,10,3,0,0,0,0,0
45,theboogyman,8,10,10,10,3,0,0,0,0,0
45,Nyktimené,7,10,10,10,3,0,0,0,0,0
45,AAMaster55,1,10,10,10,3,0,0,0,0,0
45,Roha1111,1,21,10,10,3,0,0,0,0,0
45,quancej,5,24,9,9,3,0,0,0,0,0
45,crypto-lite91,11,66,9,9,3,0,0,1,0,0
45,Tommy-Shelby,9,9,9,9,3,0,0,0,0,0
45,Jahura_Banu,5,36,9,9,3,0,0,1,0,0
45,Cryptolemon,12,9,9,9,3,0,0,0,0,0
45,Jdeluxe,7,9,9,9,3,0,0,0,0,0
45,SHINZON,7,9,9,9,3,0,0,0,0,0
45,GodMode,8,27,9,9,3,0,0,0,0,0
45,Dactar,11,9,9,9,3,0,0,0,0,0
45,kybikys85,1,9,9,9,3,0,0,0,0,0
45,superslim,12,9,9,9,3,0,0,0,0,0
45,AngryLookingGuy,5,10,9,9,3,0,0,0,0,0
45,snak3.eth,3,15,9,9,3,0,0,0,0,0
45,Xiato,7,9,9,9,3,0,0,0,0,0
45,Biggz0522,8,11,9,9,3,0,0,0,0,0
45,Tribone,7,9,9,9,3,0,0,0,0,0
45,Ultra-Ice,3,11,9,9,3,0,0,0,0,0
45,Archangel1318,12,9,9,9,3,0,0,0,0,0
45,JohnConner,3,9,9,9,3,0,0,0,0,0
45,Cerberus,7,9,9,9,3,0,0,0,0,0
45,pornhub,12,28,9,9,3,0,0,0,0,0
45,iluvsheep,8,9,9,9,3,0,0,0,0,0
45,JM_Borg_,1,9,9,9,3,0,0,0,0,0
45,ThotHtheAtlanteaN,8,9,9,9,3,0,0,0,0,0
45,Khazrakh,12,9,9,9,3,0,0,0,0,0
45,Angel_RS,1,9,9,9,3,0,0,0,0,0
45,Tiannizu,1,22,9,9,3,0,0,0,0,0
45,Intergalactic,9,35,9,9,3,0,0,1,0,0
45,AnusMundi,9,9,9,9,3,0,0,0,0,0
45,chilltown,8,9,9,9,3,0,0,0,0,0
45,someonesomeone,12,14,9,9,3,0,0,0,0,0
45,cicada,10,40,9,9,3,0,0,1,0,0
45,strange,6,17,9,9,3,0,0,0,0,0
45,iflion,9,9,9,9,3,0,0,0,0,0
45,Omegafenix,8,9,9,9,3,0,0,0,0,0
45,Mice Elf,7,13,9,9,3,0,0,0,0,0
45,noicetomeetya,4,9,9,9,3,0,0,0,0,0
45,Andantino,11,9,9,9,3,0,0,0,0,0
45,Acecompac,8,22,9,9,3,0,0,0,0,0
45,iantrebeljahr,7,9,9,9,3,0,0,0,0,0
45,blondin,2,23,9,9,3,0,0,0,0,0
45,t0w,9,9,9,9,3,0,0,0,0,0
45,Lucky112N,5,9,9,9,3,0,0,0,0,0
45,Elfo Strego,1,11,9,9,3,0,0,0,0,0
45,cesarmorles,6,22,9,9,3,0,0,0,0,0
45,Des Petrovich,7,9,9,9,3,0,0,0,0,0
45,Chain0tater,6,26,9,9,3,0,0,0,0,0
45,Deil713009,4,23,9,9,3,0,0,0,0,0
45,KhanVovan,6,8,8,8,3,0,0,0,0,0
45,DeHenne,9,16,8,8,3,0,0,0,0,0
45,vladyser5554,7,8,8,8,3,0,0,0,0,0
45,maelstrom4880,6,8,8,8,3,0,0,0,0,0
45,WhiteWhale,6,40,8,8,3,0,0,1,0,0
45,Valhalla,8,14,8,8,3,0,0,0,0,0
45,a29654776,9,30,8,8,3,0,0,1,0,0
45,Kietelaar,7,8,8,8,3,0,0,0,0,0
45,Denker,12,8,8,8,3,0,0,0,0,0
45,Lord of Crypto,8,8,8,8,3,0,0,0,0,0
45,stachu,8,8,8,8,3,0,0,0,0,0
45,WildCard0341,8,8,8,8,3,0,0,0,0,0
45,grille67,6,16,8,8,3,0,0,0,0,0
45,console,5,8,8,8,3,0,0,0,0,0
45,imbiimbi,9,36,8,8,3,0,0,1,0,0
45,domvoj01,1,41,8,8,3,0,0,1,0,0
45,DeusEM,10,8,8,8,3,0,0,0,0,0
45,Babooshka,4,8,8,8,3,0,0,0,0,0
45,Kodes.au,6,21,8,8,3,0,0,0,0,0
45,trollshock,9,8,8,8,3,0,0,0,0,0
45,Stake Hunter,8,27,8,8,3,0,0,0,0,0
45,~o0GiN0o~,8,8,8,8,3,0,0,0,0,0
45,Lezuziusz,12,8,8,8,3,0,0,0,0,0
45,polter.pommes,3,8,8,8,3,0,0,0,0,0
45,Sir Ike Moesha Broflovski,10,39,8,8,3,0,0,1,0,0
45,Deep,11,8,8,8,3,0,0,0,0,0
45,jcsc1989,8,8,8,8,3,0,0,0,0,0
45,ferzspb,10,9,8,8,3,0,0,0,0,0
45,saphst4r,10,8,8,8,3,0,0,0,0,0
45,[Mythic] saints,12,8,8,8,3,0,0,0,0,0
45,HaruhiSuzumiya,10,23,8,8,3,0,0,0,0,0
45,teawaterwire,5,8,8,8,3,0,0,0,0,0
45,EricShawn,11,9,8,8,3,0,0,0,0,0
45,Doompig,1,8,8,8,3,0,0,0,0,0
45,Odaja,9,12,8,8,3,0,0,0,0,0
45,Woden,11,12,8,8,3,0,0,0,0,0
45,Superpassteque,1,8,8,8,3,0,0,0,0,0
45,spaceinvader,9,8,8,8,3,0,0,0,0,0
45,hiroppy,8,8,8,8,3,0,0,0,0,0
45,Shinjiz,7,8,8,8,3,0,0,0,0,0
45,rare,10,8,8,8,3,0,0,0,0,0
45,gabrielhagard,5,8,8,8,3,0,0,0,0,0
45,PeakABoo,12,8,8,8,3,0,0,0,0,0
45,kentsutse,6,10,8,8,3,0,0,0,0,0
45,Mel0n102,9,8,8,8,3,0,0,0,0,0
45,czjmaster,1,7,7,7,2,0,0,0,0,0
45,TheUnknown,8,7,7,7,2,0,0,0,0,0
45,radi,11,7,7,7,2,0,0,0,0,0
45,TradingSocks,5,30,7,7,2,0,0,1,0,0
45,gecheverria86,8,7,7,7,2,0,0,0,0,0
45,maovader888,7,11,7,7,2,0,0,0,0,0
45,Sergey26905,5,7,7,7,2,0,0,0,0,0
45,skabber,10,7,7,7,2,0,0,0,0,0
45,Cryptotastic,12,7,7,7,2,0,0,0,0,0
45,superman313,11,21,7,7,2,0,0,0,0,0
45,Hastal Havista,6,7,7,7,2,0,0,0,0,0
45,Cerne,12,7,7,7,2,0,0,0,0,0
45,LegndRicky,9,7,7,7,2,0,0,0,0,0
45,GazzaMine,5,7,7,7,2,0,0,0,0,0
45,Sergee25,5,10,7,7,2,0,0,0,0,0
45,WalkingToyto,6,7,7,7,2,0,0,0,0,0
45,davirozz,5,7,7,7,2,0,0,0,0,0
45,Lazaroth,7,7,7,7,2,0,0,0,0,0
45,Dasrauscht,6,10,7,7,2,0,0,0,0,0
45,Channel9,4,7,7,7,2,0,0,0,0,0
45,Ptothehyphen,12,14,7,7,2,0,0,0,0,0
45,freedom2020,7,17,7,7,2,0,0,0,0,0
45,Michellie420,1,7,7,7,2,0,0,0,0,0
45,Lifeboy,12,7,7,7,2,0,0,0,0,0
45,willtheitking,3,7,7,7,2,0,0,0,0,0
45,Treborsawi,9,7,7,7,2,0,0,0,0,0
45,Mr_*M*E*A*T*,10,7,7,7,2,0,0,0,0,0
45,Bumboklaat,9,7,7,7,2,0,0,0,0,0
45,Einswarden,3,7,7,7,2,0,0,0,0,0
45,trakzenator,4,7,7,7,2,0,0,0,0,0
45,Tafut Aga,3,15,7,7,2,0,0,0,0,0
45,z4tm99vr,8,7,7,7,2,0,0,0,0,0
45,GreyBear,1,7,7,7,2,0,0,0,0,0
45,karabas666,10,7,7,7,2,0,0,0,0,0
45,Niikov22,3,7,7,7,2,0,0,0,0,0
45,N0fx,7,7,7,7,2,0,0,0,0,0
45,PlinytheEther,12,8,7,7,2,0,0,0,0,0
45,⛓⛓⛓,12,37,7,7,2,0,0,1,0,0
45,IAMZERG9,5,7,7,7,2,0,0,0,0,0
45,Sir_notAb0t,9,7,7,7,2,0,0,0,0,0
45,Starskreem,1,6,6,6,2,0,0,0,0,0
45,Oleg326756,8,6,6,6,2,0,0,0,0,0
45,Blackbird,5,7,6,6,2,0,0,0,0,0
45,DaoChemist,7,6,6,6,2,0,0,0,0,0
45,Glamlys,8,6,6,6,2,0,0,0,0,0
45,Zeleios,9,6,6,6,2,0,0,0,0,0
45,WizardWes,6,6,6,6,2,0,0,0,0,0
45,Bobmynobster,4,6,6,6,2,0,0,0,0,0
45,MariaGGF,1,15,6,6,2,0,0,0,0,0
45,turgor777,6,6,6,6,2,0,0,0,0,0
45,Xylo Spongium,1,6,6,6,2,0,0,0,0,0
45,Little_cuckoo,9,6,6,6,2,0,0,0,0,0
45,Hermes,11,6,6,6,2,0,0,0,0,0
45,Guldor,1,6,6,6,2,0,0,0,0,0
45,ZACHISNICE,2,6,6,6,2,0,0,0,0,0
45,♜ ♝ ♞ ♟,9,6,6,6,2,0,0,0,0,0
45,Broken-lotus,3,6,6,6,2,0,0,0,0,0
45,Hanri555,11,6,6,6,2,0,0,0,0,0
45,fuck_all,8,6,6,6,2,0,0,0,0,0
45,julien,7,6,6,6,2,0,0,0,0,0
45,Oblongfitzoblong,11,6,6,6,2,0,0,0,0,0
45,.XXOTCXX.,7,6,6,6,2,0,0,0,0,0
45,emiliomorles,8,6,6,6,2,0,0,0,0,0
45,TheNotoriouszz,9,6,6,6,2,0,0,0,0,0
45,bang39,11,6,6,6,2,0,0,0,0,0
45,MekMirek,6,6,6,6,2,0,0,0,0,0
45,MustangKirby,8,32,6,6,2,0,0,1,0,0
45,den_plsk,1,6,6,6,2,0,0,0,0,0
45,Bitsavage,7,6,6,6,2,0,0,0,0,0
45,bricketti,1,6,6,6,2,0,0,0,0,0
45,crypto_bovine,5,6,6,6,2,0,0,0,0,0
45,Moneybags,8,6,6,6,2,0,0,0,0,0
45,Sandalwood,5,6,5,5,2,0,0,0,0,0
45,Bitcoin,12,5,5,5,2,0,0,0,0,0
45,Zephuros,8,5,5,5,2,0,0,0,0,0
45,vinnyp34,6,5,5,5,2,0,0,0,0,0
45,YetiDotETH,11,5,5,5,2,0,0,0,0,0
45,Taetae21,2,5,5,5,2,0,0,0,0,0
45,Jimmer,12,5,5,5,2,0,0,0,0,0
45,Gytareum,9,5,5,5,2,0,0,0,0,0
45,EtherKnight,8,5,5,5,2,0,0,0,0,0
45,GV,2,5,5,5,2,0,0,0,0,0
45,vadim1105,1,5,5,5,2,0,0,0,0,0
45,Guardian50,1,5,5,5,2,0,0,0,0,0
45,PeriodBloodMouthWash,8,5,5,5,2,0,0,0,0,0
45,blakyeltoro,5,5,5,5,2,0,0,0,0,0
45,Phenomenon,7,5,5,5,2,0,0,0,0,0
45,Mage Zyron,9,5,5,5,2,0,0,0,0,0
45,karlito636,7,5,5,5,2,0,0,0,0,0
45,Chiantia,10,5,5,5,2,0,0,0,0,0
45,ZhiBo,4,5,5,5,2,0,0,0,0,0
45,Tinuva88,5,13,5,5,2,0,0,0,0,0
45,Cananopie,9,5,5,5,2,0,0,0,0,0
45,skankhunt42,8,5,5,5,2,0,0,0,0,0
45,RiassGremory,6,33,5,5,2,0,0,1,0,0
45,Totemsh,7,5,5,5,2,0,0,0,0,0
45,Mahlzahn,1,5,5,5,2,0,0,0,0,0
45,Varick,9,5,5,5,2,0,0,0,0,0
45,quantumgamble,12,45,5,5,2,0,0,1,0,0
45,Ragnor8476,7,7,5,5,2,0,0,0,0,0
45,Avatar1188,4,5,5,5,2,0,0,0,0,0
45,concordman,6,5,5,5,2,0,0,0,0,0
45,Stoneward,8,5,5,5,2,0,0,0,0,0
45,blockchaingames.fun,10,5,5,5,2,0,0,0,0,0
45,Helga999,8,5,5,5,2,0,0,0,0,0
45,Wasper,12,5,5,5,2,0,0,0,0,0
45,KLMJ,8,5,5,5,2,0,0,0,0,0
45,BallNChained,8,4,4,4,1,0,0,0,0,0
45,romansito,7,4,4,4,1,0,0,0,0,0
45,pippodio,9,4,4,4,1,0,0,0,0,0
45,itzdevil,1,4,4,4,1,0,0,0,0,0
45,juliusnakamoto,5,14,4,4,1,0,0,0,0,0
45,toomey779,7,4,4,4,1,0,0,0,0,0
45,ltdan,11,4,4,4,1,0,0,0,0,0
45,Omen #MetaHash,11,4,4,4,1,0,0,0,0,0
45,catello78,7,4,4,4,1,0,0,0,0,0
45,marukaziri,9,4,4,4,1,0,0,0,0,0
45,memory,6,4,4,4,1,0,0,0,0,0
45,Acryos der Graue,5,4,4,4,1,0,0,0,0,0
45,coSMIX,7,4,4,4,1,0,0,0,0,0
45,BuidloBagins,11,4,4,4,1,0,0,0,0,0
45,tactics1,8,4,4,4,1,0,0,0,0,0
45,HungLikeHippo,7,4,4,4,1,0,0,0,0,0
45,sidais,7,4,4,4,1,0,0,0,0,0
45,tengchiang,8,4,4,4,1,0,0,0,0,0
45,PuzzleMazl,8,4,4,4,1,0,0,0,0,0
45,jcrypto,4,4,4,4,1,0,0,0,0,0
45,cockhand,5,4,4,4,1,0,0,0,0,0
45,TWRWMOMGU,1,4,4,4,1,0,0,0,0,0
45,masanari,7,4,4,4,1,0,0,0,0,0
45,ForlornHope,7,4,4,4,1,0,0,0,0,0
45,Ignacioarreses,5,4,4,4,1,0,0,0,0,0
45,TedTedBear,1,4,4,4,1,0,0,0,0,0
45,WilliamLee,9,4,4,4,1,0,0,0,0,0
45,V-Tep,7,4,4,4,1,0,0,0,0,0
45,santiagoha,1,4,4,4,1,0,0,0,0,0
45,AIDAN420,7,4,4,4,1,0,0,0,0,0
45,PeterD,9,4,4,4,1,0,0,0,0,0
45,ill_coin,5,4,4,4,1,0,0,0,0,0
45,DrippSinatra,6,4,4,4,1,0,0,0,0,0
45,Overlordtrial,1,4,4,4,1,0,0,0,0,0
45,CH1P7,7,4,4,4,1,0,0,0,0,0
45,Cre47iv3,7,4,4,4,1,0,0,0,0,0
45,MikeTyCrowe,1,4,4,4,1,0,0,0,0,0
45,oniru,8,4,4,4,1,0,0,0,0,0
45,DudeGuy420,10,4,4,4,1,0,0,0,0,0
45,filestorm,1,4,4,4,1,0,0,0,0,0
45,asil75,5,4,4,4,1,0,0,0,0,0
45,haneabelow,4,4,4,4,1,0,0,0,0,0
45,narres2252,6,3,3,3,1,0,0,0,0,0
45,Tdr46,5,3,3,3,1,0,0,0,0,0
45,BL4NKE7,8,3,3,3,1,0,0,0,0,0
45,reterical,12,3,3,3,1,0,0,0,0,0
45,Unique.Esprit,10,3,3,3,1,0,0,0,0,0
45,licefer3,4,3,3,3,1,0,0,0,0,0
45,LordTits,10,3,3,3,1,0,0,0,0,0
45,vanish,2,3,3,3,1,0,0,0,0,0
45,Beastlik3,10,3,3,3,1,0,0,0,0,0
45,kolia31802,8,3,3,3,1,0,0,0,0,0
45,Jojo4ever,5,3,3,3,1,0,0,0,0,0
45,Flohh82,1,3,3,3,1,0,0,0,0,0
45,justinj0305,8,3,3,3,1,0,0,0,0,0
45,plaakkon,8,3,3,3,1,0,0,0,0,0
45,AbbathGR,7,3,3,3,1,0,0,0,0,0
45,Byob75,12,3,3,3,1,0,0,0,0,0
45,Areraneе,5,3,3,3,1,0,0,0,0,0
45,Michael3,10,3,3,3,1,0,0,0,0,0
45,Puatinnor,3,3,3,3,1,0,0,0,0,0
45,YodaFett hates deception,12,3,3,3,1,0,0,0,0,0
45,HypnoGremlin,5,3,3,3,1,0,0,0,0,0
45,ProfessorBellBottom,11,3,3,3,1,0,0,0,0,0
45,onlys,5,3,3,3,1,0,0,0,0,0
45,Rvu_Vsem_Duplo,8,3,3,3,1,0,0,0,0,0
45,SpicoliAndreti,7,3,3,3,1,0,0,0,0,0
45,Wall_Of_Yawn,1,3,3,3,1,0,0,0,0,0
45,MarcheG,5,12,3,3,1,0,0,0,0,0
45,wilian9944,7,3,3,3,1,0,0,0,0,0
45,rex.regulus.rey,7,3,3,3,1,0,0,0,0,0
45,Rugdealer,4,3,3,3,1,0,0,0,0,0
45,p_blezee,7,3,3,3,1,0,0,0,0,0
45,Anaxamander,8,3,3,3,1,0,0,0,0,0
45,Headsnap,7,3,3,3,1,0,0,0,0,0
45,Azazell,6,3,3,3,1,0,0,0,0,0
45,CoolGer,12,3,3,3,1,0,0,0,0,0
45,Apoptoza,7,3,3,3,1,0,0,0,0,0
45,Poluekt,11,3,3,3,1,0,0,0,0,0
45,The7tard,7,3,3,3,1,0,0,0,0,0
45,Kokoyro1,4,3,3,3,1,0,0,0,0,0
45,Edgecaser,8,3,3,3,1,0,0,0,0,0
45,Nilceps-,6,3,3,3,1,0,0,0,0,0
45,Blockfisher,6,3,3,3,1,0,0,0,0,0
45,PrinceH,8,3,3,3,1,0,0,0,0,0
45,sebstar123,6,3,3,3,1,0,0,0,0,0
45,Raapst70,6,3,3,3,1,0,0,0,0,0
45,hakenbrowning,1,3,3,3,1,0,0,0,0,0
45,&,8,3,3,3,1,0,0,0,0,0
45,Master_Elliott,4,3,3,3,1,0,0,0,0,0
45,BlocksUnchained,11,3,3,3,1,0,0,0,0,0
45,Furolorrn,2,3,3,3,1,0,0,0,0,0
45,drchronic01,12,3,3,3,1,0,0,0,0,0
45,Prestoned,1,3,3,3,1,0,0,0,0,0
45,Gabriel,9,3,3,3,1,0,0,0,0,0
45,AddaxHD,8,3,3,3,1,0,0,0,0,0
45,playergu,7,3,3,3,1,0,0,0,0,0
45,нн,8,3,3,3,1,0,0,0,0,0
45,kingdavid,8,3,3,3,1,0,0,0,0,0
45,H1c0,2,3,3,3,1,0,0,0,0,0
45,Runglish,5,3,3,3,1,0,0,0,0,0
45,muhammad,1,7,3,3,1,0,0,0,0,0
45,ronink77,1,3,3,3,1,0,0,0,0,0
45,the.chief,5,2,2,2,0,0,0,0,0,0
45,nuclearmonk,8,2,2,2,0,0,0,0,0,0
45,eul0gy,3,2,2,2,0,0,0,0,0,0
45,Jelly2010,7,2,2,2,0,0,0,0,0,0
45,papalopodus,7,2,2,2,0,0,0,0,0,0
45,shock,11,2,2,2,0,0,0,0,0,0
45,TrapCard,4,2,2,2,0,0,0,0,0,0
45,lothendriel,4,2,2,2,0,0,0,0,0,0
45,CoOpMaster,1,2,2,2,0,0,0,0,0,0
45,gu.cards,9,2,2,2,0,0,0,0,0,0
45,Buggy,10,2,2,2,0,0,0,0,0,0
45,facugaba04,1,2,2,2,0,0,0,0,0,0
45,RasmusGrove,8,2,2,2,0,0,0,0,0,0
45,freakinblack,1,2,2,2,0,0,0,0,0,0
45,RdrFerreira,4,3,2,2,0,0,0,0,0,0
45,Crunaritti,1,2,2,2,0,0,0,0,0,0
45,Feddas,12,2,2,2,0,0,0,0,0,0
45,BLISS,8,2,2,2,0,0,0,0,0,0
45,Ajoka01,3,2,2,2,0,0,0,0,0,0
45,luffy1717,1,2,2,2,0,0,0,0,0,0
45,cybergrinder,5,2,2,2,0,0,0,0,0,0
45,VonMises,11,2,2,2,0,0,0,0,0,0
45,GamingWithCrypto,4,2,2,2,0,0,0,0,0,0
45,ForeverAverage,9,2,2,2,0,0,0,0,0,0
45,TerminatorFX,4,2,2,2,0,0,0,0,0,0
45,AbedIsBatman,6,2,2,2,0,0,0,0,0,0
45,Endo,4,2,2,2,0,0,0,0,0,0
45,Littles83,1,2,2,2,0,0,0,0,0,0
45,PlasticCarrot,5,2,2,2,0,0,0,0,0,0
45,Ben the Butcher,1,2,2,2,0,0,0,0,0,0
45,maragigayan,9,2,2,2,0,0,0,0,0,0
45,ManOPz818,1,2,2,2,0,0,0,0,0,0
45,fullerideas,5,2,2,2,0,0,0,0,0,0
45,Tinman,10,2,2,2,0,0,0,0,0,0
45,[Taiga] VOLK,12,2,2,2,0,0,0,0,0,0
45,Brassica7,11,2,2,2,0,0,0,0,0,0
45,ranab998,6,2,2,2,0,0,0,0,0,0
45,axordahaxor,9,2,2,2,0,0,0,0,0,0
45,andreaskanel,8,2,2,2,0,0,0,0,0,0
45,L3xxxxxx,6,2,2,2,0,0,0,0,0,0
45,shadowstep33,7,2,2,2,0,0,0,0,0,0
45,Tenebrae,1,2,2,2,0,0,0,0,0,0
45,Hret1337,11,2,2,2,0,0,0,0,0,0
45,dert1114,6,2,2,2,0,0,0,0,0,0
45,jetjockey,8,2,2,2,0,0,0,0,0,0
45,Acolyte,3,2,2,2,0,0,0,0,0,0
45,SpicySquid,4,2,2,2,0,0,0,0,0,0
45,Expired,9,2,2,2,0,0,0,0,0,0
45,sl1200mk5,8,2,2,2,0,0,0,0,0,0
45,SneezyDwarf,8,2,2,2,0,0,0,0,0,0
45,buburtboy,1,2,2,2,0,0,0,0,0,0
45,Montrix,8,2,2,2,0,0,0,0,0,0
45,Kappacino,9,2,2,2,0,0,0,0,0,0
45,Ezekiel,6,2,2,2,0,0,0,0,0,0
45,son_of_helga,1,2,2,2,0,0,0,0,0,0
45,sambaE11,3,2,2,2,0,0,0,0,0,0
45,Barbz,7,2,2,2,0,0,0,0,0,0
45,boussinus,6,2,2,2,0,0,0,0,0,0
45,Deadbeat,3,3,2,2,0,0,0,0,0,0
45,dedemon,9,2,2,2,0,0,0,0,0,0
45,Starvin,12,2,2,2,0,0,0,0,0,0
45,Syonidehyde1165,7,2,2,2,0,0,0,0,0,0
45,Farklemania,9,2,2,2,0,0,0,0,0,0
45,Ry4n,8,2,2,2,0,0,0,0,0,0
45,naynaysoosoo,11,2,2,2,0,0,0,0,0,0
45,dr-nuker,6,2,2,2,0,0,0,0,0,0
45,Ramzessi4,1,1,1,1,0,0,0,0,0,0
45,Rhylae,10,1,1,1,0,0,0,0,0,0
45,olexoiweb,1,1,1,1,0,0,0,0,0,0
45,Prikster,7,1,1,1,0,0,0,0,0,0
45,SirSpeck,1,1,1,1,0,0,0,0,0,0
45,Pwned_By_A_Girl,9,1,1,1,0,0,0,0,0,0
45,forest gate,1,1,1,1,0,0,0,0,0,0
45,futuremars051,7,1,1,1,0,0,0,0,0,0
45,Shockabuku,5,1,1,1,0,0,0,0,0,0
45,christian,1,1,1,1,0,0,0,0,0,0
45,SpaceCat,8,1,1,1,0,0,0,0,0,0
45,Ytregah619,3,1,1,1,0,0,0,0,0,0
45,bit_stan,11,1,1,1,0,0,0,0,0,0
45,doppiabeo,6,1,1,1,0,0,0,0,0,0
45,henningju,9,1,1,1,0,0,0,0,0,0
45,Quaradur,1,1,1,1,0,0,0,0,0,0
45,ibloirio,1,1,1,1,0,0,0,0,0,0
45,EdOnCouch,8,1,1,1,0,0,0,0,0,0
45,Grigolld,5,1,1,1,0,0,0,0,0,0
45,NIKOLAIII,4,1,1,1,0,0,0,0,0,0
45,1max112,5,1,1,1,0,0,0,0,0,0
45,ROBOB210,3,1,1,1,0,0,0,0,0,0
45,MSD,3,1,1,1,0,0,0,0,0,0
45,tonkytonks,1,1,1,1,0,0,0,0,0,0
45,Shades71,1,1,1,1,0,0,0,0,0,0
45,pls let me win im noob,8,1,1,1,0,0,0,0,0,0
45,Hellvent,9,1,1,1,0,0,0,0,0,0
45,SuperGeorge,5,1,1,1,0,0,0,0,0,0
45,Holdie21,5,1,1,1,0,0,0,0,0,0
45,Apexlion,7,1,1,1,0,0,0,0,0,0
45,kleber483,5,1,1,1,0,0,0,0,0,0
45,Helltroll,1,1,1,1,0,0,0,0,0,0
45,tronslon,3,1,1,1,0,0,0,0,0,0
45,MattyIce,8,1,1,1,0,0,0,0,0,0
45,poptartz4you,7,1,1,1,0,0,0,0,0,0
45,幻,12,1,1,1,0,0,0,0,0,0
45,AgentOrange,12,1,1,1,0,0,0,0,0,0
45,Snuffy,9,1,1,1,0,0,0,0,0,0
45,Staff Phyre,3,1,1,1,0,0,0,0,0,0
45,Kazimir1992,8,1,1,1,0,0,0,0,0,0
45,yatyatling,3,1,1,1,0,0,0,0,0,0
45,EHURRICANE,3,1,1,1,0,0,0,0,0,0
45,DashTheSquid,1,1,1,1,0,0,0,0,0,0
45,Foxtail,6,1,1,1,0,0,0,0,0,0
45,ArrkinPrimis,6,1,1,1,0,0,0,0,0,0
45,_fireartist,9,1,1,1,0,0,0,0,0,0
45,shadowkill{599],4,1,1,1,0,0,0,0,0,0
45,Yell,7,1,1,1,0,0,0,0,0,0
45,Kraken Zer0,7,1,1,1,0,0,0,0,0,0
45,bobcryptolover,6,1,1,1,0,0,0,0,0,0
45,zygeL,5,1,1,1,0,0,0,0,0,0
45,pablow,6,1,1,1,0,0,0,0,0,0
45,6theskull6smasher6,1,1,1,1,0,0,0,0,0,0
45,GL1TCH,9,1,1,1,0,0,0,0,0,0
45,MrEagle,4,1,1,1,0,0,0,0,0,0
45,Manigoldo,6,1,1,1,0,0,0,0,0,0
45,stuungar,1,1,1,1,0,0,0,0,0,0
45,Chamil,9,1,1,1,0,0,0,0,0,0
45,majleestoned,4,1,1,1,0,0,0,0,0,0
45,Lloyd88!,5,1,1,1,0,0,0,0,0,0
45,EatUrLivers,7,1,1,1,0,0,0,0,0,0
45,Olymp,6,1,1,1,0,0,0,0,0,0
45,nmkenji,5,1,1,1,0,0,0,0,0,0
45,dnova,2,1,1,1,0,0,0,0,0,0
45,KairosMGW,1,1,1,1,0,0,0,0,0,0
45,KBRC3627,7,1,1,1,0,0,0,0,0,0
45,Silver_Coin,5,1,1,1,0,0,0,0,0,0
45,123234345,5,1,1,1,0,0,0,0,0,0
45,1234DKK4321,1,1,1,1,0,0,0,0,0,0
45,Stepuptotheplate2,5,1,1,1,0,0,0,0,0,0
45,F00LHardy,2,1,1,1,0,0,0,0,0,0
45,charthur,3,1,1,1,0,0,0,0,0,0
45,Hm47goat,5,1,1,1,0,0,0,0,0,0
45,RainyTurtle,1,1,1,1,0,0,0,0,0,0
45,jhon golden eggs,1,1,1,1,0,0,0,0,0,0
45,dE7ERV,1,1,1,1,0,0,0,0,0,0
45,Riddlept,9,1,1,1,0,0,0,0,0,0
45,fabblwaps,1,1,1,1,0,0,0,0,0,0
45,artMartialMyx,8,1,1,1,0,0,0,0,0,0
45,brendo97,1,1,1,1,0,0,0,0,0,0
45,DeCrypto,1,1,1,1,0,0,0,0,0,0
45,bushido,6,1,1,1,0,0,0,0,0,0
45,Andres,4,1,1,1,0,0,0,0,0,0
45,Jinimage,6,1,1,1,0,0,0,0,0,0
45,heroldius,1,1,1,1,0,0,0,0,0,0
45,neverytime,8,1,1,1,0,0,0,0,0,0
45,jellyroll,7,1,1,1,0,0,0,0,0,0
45,Marginal,9,1,1,1,0,0,0,0,0,0
45,AmericanIcarus,10,1,1,1,0,0,0,0,0,0
45,Digitt,10,1,1,1,0,0,0,0,0,0
45,nihao888,10,1,1,1,0,0,0,0,0,0
45,FSadinoX,5,1,1,1,0,0,0,0,0,0
45,ProtegeAA,2,1,1,1,0,0,0,0,0,0
45,LeeGon,7,1,1,1,0,0,0,0,0,0
45,MuffinMonkey,8,1,1,1,0,0,0,0,0,0
45,kigawakunto27,12,2,1,1,0,0,0,0,0,0
45,Allayom,7,1,1,1,0,0,0,0,0,0
45,Negil12345,1,1,1,1,0,0,0,0,0,0
45,Nevermind,6,1,1,1,0,0,0,0,0,0
45,foggybottom,5,1,1,1,0,0,0,0,0,0
45,Yurij,9,1,1,1,0,0,0,0,0,0
45,Bubbnubb,2,1,1,1,0,0,0,0,0,0
45,Keyci666,1,1,1,1,0,0,0,0,0,0
45,Airwin-apollo,5,1,1,1,0,0,0,0,0,0
45,cjmoles,7,1,1,1,0,0,0,0,0,0
45,finnfarid23,3,1,1,1,0,0,0,0,0,0
45,Schnauzerlover,2,1,1,1,0,0,0,0,0,0
45,LittleMeTime,8,1,1,1,0,0,0,0,0,0
45,Totomato2,7,1,1,1,0,0,0,0,0,0
46,Wilderness,12,24,22,22,0,0,3,0,0,2
46,Apollo,12,21,21,21,0,0,2,0,2,1
46,Mirage88,12,43,21,21,0,0,2,1,2,1
46,[tst]cautionfun,12,32,21,21,0,0,2,1,2,1
46,[Mythic] saints,12,31,20,20,0,1,1,2,1,1
46,[Mythic] revan,12,36,20,20,0,1,1,2,1,1
46,jama,12,20,20,20,0,1,1,1,1,1
46,zlaxor,12,20,20,20,0,1,1,1,1,1
46,Lysander,12,20,20,20,0,1,1,1,1,1
46,FoxCries,12,20,19,19,0,2,1,0,2,0
46,Charles Utkins,12,54,19,19,0,2,1,1,2,0
46,Грумвол,12,31,19,19,0,2,1,1,2,0
46,LetMeLive,12,22,19,19,0,2,1,0,2,0
46,DiegoFerreL,12,39,19,19,0,2,1,1,2,0
46,白乌鸦,12,22,19,19,0,2,1,0,2,0
46,Moonpig,10,35,22,19,0,2,1,1,2,0
46,[tst] Freedan,12,49,19,19,0,2,1,1,2,0
46,Longy,12,30,19,19,0,2,1,1,2,0
46,radi,10,20,20,19,0,2,1,0,2,0
46,spaceinvader,10,21,20,19,0,2,1,0,2,0
46,のんちゃん,12,58,19,19,0,2,1,1,2,0
46,[tst]bonkthatbutt,12,21,19,19,0,2,1,0,2,0
46,Dave,10,33,21,19,0,2,1,1,2,0
46,自然,12,34,19,19,0,2,1,1,2,0
46,kigawakunto27,11,18,18,18,0,3,0,0,2,0
46,DthRevan,9,18,18,18,0,3,0,0,2,0
46,JoltzNinja,12,32,18,18,0,3,0,1,2,0
46,reddybear,11,19,18,18,0,3,0,0,2,0
46,✜CryptoDoC✜,12,32,18,18,0,3,0,1,2,0
46,[Mythic] Ducky,12,31,18,18,0,3,0,1,2,0
46,Scuffle,12,18,18,18,0,3,0,0,2,0
46,Ares,9,35,18,18,0,3,0,1,2,0
46,Resonator,12,18,18,18,0,3,0,0,2,0
46,[tst]themudman,12,18,18,18,0,3,0,0,2,0
46,Hermes,10,19,18,18,0,3,0,0,2,0
46,اکویٹا,12,32,18,18,0,3,0,1,2,0
46,doudou2201,9,31,20,18,0,3,0,1,2,0
46,☺,12,35,18,18,0,3,0,1,2,0
46,Nininiao,9,31,20,18,0,3,0,1,2,0
46,blacksad,9,30,19,18,0,3,0,1,2,0
46,Wades.ETH,12,32,18,18,0,3,0,1,2,0
46,Akilsainon,12,19,17,17,1,2,0,0,2,0
46,Wezz,12,23,17,17,1,2,0,0,2,0
46,Demolisher,8,31,22,17,1,2,0,1,2,0
46,Zorian,9,17,17,17,1,2,0,0,2,0
46,Leidenfrost,9,38,17,17,1,2,0,1,2,0
46,smirnawf,8,18,18,17,1,2,0,0,2,0
46,galdames2,8,20,19,17,1,2,0,0,2,0
46,Þ,12,20,17,17,1,2,0,0,2,0
46,cicada,8,49,18,17,1,2,0,1,2,0
46,Galragg,9,17,17,17,1,2,0,0,2,0
46,someonesomeone,8,30,17,17,1,2,0,1,2,0
46,KceoLine,8,32,17,17,1,2,0,1,2,0
46,saphst4r,8,24,19,17,1,2,0,0,2,0
46,Isildur,10,18,17,17,1,2,0,0,2,0
46,CopperPitch,12,34,17,17,1,2,0,1,2,0
46,z3ll,12,17,17,17,1,2,0,0,2,0
46,Surface2AirMissle,8,18,18,17,1,2,0,0,2,0
46,nshrd,12,30,17,17,1,2,0,1,2,0
46,a29654776,9,33,17,17,1,2,0,1,2,0
46,禄 禄 禄 禄 禄,8,22,20,17,1,2,0,0,2,0
46,furryballs,8,20,17,17,1,2,0,0,2,0
46,Krumpy Lumpkins,12,33,17,17,1,2,0,1,2,0
46,脈動,11,38,17,17,1,2,0,1,2,0
46,⛓⛓⛓,12,42,17,17,1,2,0,1,2,0
46,slivenec,8,19,19,17,1,2,0,0,2,0
46,TheHassy,11,17,17,17,1,2,0,0,2,0
46,coinage,7,19,18,16,0,3,0,1,1,0
46,restb777,7,23,19,16,0,3,0,1,1,0
46,$,8,88,16,16,0,3,0,2,1,0
46,goldemon,7,17,16,16,0,3,0,1,1,0
46,Cerne,12,22,16,16,0,3,0,1,1,0
46,Waikikamukau,11,34,16,16,0,3,0,2,1,0
46,Enzo05,7,34,17,16,0,3,0,2,1,0
46,TerribleJIexa,10,37,16,16,0,3,0,2,1,0
46,DPRoberts99,7,16,16,16,0,3,0,1,1,0
46,JohnTravolta,8,17,16,16,0,3,0,1,1,0
46,ěĝĝƑơơƴơůňĝ,8,17,16,16,0,3,0,1,1,0
46,Aragon,12,32,16,16,0,3,0,2,1,0
46,V-Hirvi,12,36,16,16,0,3,0,2,1,0
46,rl958,12,33,16,16,0,3,0,2,1,0
46,colliseum,11,16,16,16,0,3,0,1,1,0
46,ValBelair,7,21,20,16,0,3,0,1,1,0
46,三十八,12,31,16,16,0,3,0,2,1,0
46,superman313,11,31,16,16,0,3,0,2,1,0
46,FriendlySpy,8,21,16,16,0,3,0,1,1,0
46,quantumgamble,7,50,18,16,0,3,0,2,1,0
46,LordDarktempler,10,19,16,16,0,3,0,1,1,0
46,Lord of Crypto,7,16,16,16,0,3,0,1,1,0
46,TheNachoSamurai,12,31,16,16,0,3,0,2,1,0
46,maulotov,12,18,16,16,0,3,0,1,1,0
46,[Pulse] v2,10,19,16,16,0,3,0,1,1,0
46,KLMJ,8,16,16,16,0,3,0,1,1,0
46,OverM,12,25,16,16,0,3,0,1,1,0
46,sparky,9,28,16,16,0,3,0,1,1,0
46,Elyon,12,18,16,16,0,3,0,1,1,0
46,TheFireWithin,11,20,16,16,0,3,0,1,1,0
46,Ἄρης,12,16,16,16,0,3,0,1,1,0
46,Jimmer,11,18,16,16,0,3,0,1,1,0
46,arisho,8,17,16,16,0,3,0,1,1,0
46,Lotto,5,15,15,15,1,2,0,2,0,0
46,Bartuni,9,16,15,15,1,2,0,2,0,0
46,Woden,11,15,15,15,1,2,0,2,0,0
46,isaacfufu,8,15,15,15,1,2,0,2,0,0
46,cambocleve,11,20,15,15,1,2,0,2,0,0
46,♛Diman007,8,34,15,15,1,2,0,3,0,0
46,PCoq,10,15,15,15,1,2,0,2,0,0
46,Archangel1318,12,43,15,15,1,2,0,3,0,0
46,cesarmorles,8,15,15,15,1,2,0,2,0,0
46,0x7d31apuz,9,21,15,15,1,2,0,2,0,0
46,ﺴﺶﻈ,11,15,15,15,1,2,0,2,0,0
46,[IRIS]Yusakman,9,24,15,15,1,2,0,2,0,0
46,Pain,6,23,17,15,1,2,0,2,0,0
46,Cedric008,8,15,15,15,1,2,0,2,0,0
46,Manymany,8,36,15,15,1,2,0,3,0,0
46,dallas_barr,12,16,15,15,1,2,0,2,0,0
46,TenTon01,7,15,15,15,1,2,0,2,0,0
46,SolarMkd,12,32,15,15,1,2,0,3,0,0
46,RavenGuard,11,19,15,15,1,2,0,2,0,0
46,Snottysnake,9,15,15,15,1,2,0,2,0,0
46,hERoIC15397,12,43,15,15,1,2,0,3,0,0
46,Mice Elf,8,15,15,15,1,2,0,2,0,0
46,Zhiga,9,15,15,15,1,2,0,2,0,0
46,Tommy2Guns,5,16,16,15,1,2,0,2,0,0
46,Godamnitleeroy,12,32,15,15,1,2,0,3,0,0
46,‎,12,53,15,15,1,2,0,3,0,0
46,SpaceCoastKook,12,16,15,15,1,2,0,2,0,0
46,flex13,12,32,15,15,1,2,0,3,0,0
46,Damaged Gadget,9,21,15,15,1,2,0,2,0,0
46,Dimas_XT,5,30,21,15,1,2,0,3,0,0
46,pauk6666,6,18,15,15,1,2,0,2,0,0
46,Mr_*M*E*A*T*,10,16,15,15,1,2,0,2,0,0
46,wadamaruz,8,18,15,15,1,2,0,2,0,0
46,TREY,12,30,15,15,1,2,0,3,0,0
46,Swen 122,6,16,15,15,1,2,0,2,0,0
46,Gandharva,12,31,15,15,1,2,0,3,0,0
46,Nagibator777,12,15,15,15,1,2,0,2,0,0
46,DaoChemist,7,20,15,15,1,2,0,2,0,0
46,魔junior,12,15,15,15,1,2,0,2,0,0
46,carebear,12,20,15,15,1,2,0,2,0,0
46,force_of_nature,11,16,15,15,1,2,0,2,0,0
46,くりくりぷとぷと,11,16,15,15,1,2,0,2,0,0
46,gothmaug,12,15,15,15,1,2,0,2,0,0
46,bs241111,5,33,15,15,1,2,0,3,0,0
46,Cananopie,9,18,15,15,1,2,0,2,0,0
46,Yostari,11,16,15,15,1,2,0,2,0,0
46,AwesomeSparkly,5,22,20,15,1,2,0,2,0,0
46,Justinkase,9,15,15,15,1,2,0,2,0,0
46,Returner,11,38,15,15,1,2,0,3,0,0
46,D_Vitiate,10,23,15,15,1,2,0,2,0,0
46,GUDecks.com,12,24,15,15,1,2,0,2,0,0
46,Dancing_shep,8,16,15,15,1,2,0,2,0,0
46,Puspin,8,31,15,15,1,2,0,3,0,0
46,SweetEmotion,12,23,15,15,1,2,0,2,0,0
46,ulcus,8,22,14,14,1,2,0,2,0,0
46,Isildur1,9,14,14,14,1,2,0,2,0,0
46,SLIB,9,20,14,14,1,2,0,2,0,0
46,Ckastigador,12,30,14,14,1,2,0,3,0,0
46,Oxn,7,32,14,14,1,2,0,3,0,0
46,Trollmann,11,15,14,14,1,2,0,2,0,0
46,[Twitch4Fun] Kaeserotor,11,15,14,14,1,2,0,2,0,0
46,GodMode,7,19,14,14,1,2,0,2,0,0
46,popovanton89,12,34,14,14,1,2,0,3,0,0
46,Little_cuckoo,8,15,14,14,1,2,0,2,0,0
46,densdensdens,9,14,14,14,1,2,0,2,0,0
46,jcsc1989,7,14,14,14,1,2,0,2,0,0
46,Glamlys,8,14,14,14,1,2,0,2,0,0
46,PleaseDontRopeMe,9,32,14,14,1,2,0,3,0,0
46,Omen #MetaHash,12,16,14,14,1,2,0,2,0,0
46,hiroppy,8,14,14,14,1,2,0,2,0,0
46,DeHenne,7,16,14,14,1,2,0,2,0,0
46,Salernik,11,14,14,14,1,2,0,2,0,0
46,Androssi,11,14,14,14,1,2,0,2,0,0
46,paprikman,7,18,14,14,1,2,0,2,0,0
46,Blank Never Loses,10,14,14,14,1,2,0,2,0,0
46,little1985,11,16,14,14,1,2,0,2,0,0
46,baraboshka,6,14,14,14,1,2,0,2,0,0
46,__Razen__,9,15,14,14,1,2,0,2,0,0
46,stoeckro,9,16,14,14,1,2,0,2,0,0
46,SonOfLilith,5,15,14,14,1,2,0,2,0,0
46,Ainokami,5,27,14,14,1,2,0,2,0,0
46,Drummerboyj,9,18,14,14,1,2,0,2,0,0
46,TooEasy,11,22,14,14,1,2,0,2,0,0
46,darkbluechain,10,22,14,14,1,2,0,2,0,0
46,Azazell,6,14,14,14,1,2,0,2,0,0
46,foggybottom,5,14,14,14,1,2,0,2,0,0
46,ElPatron,6,14,14,14,1,2,0,2,0,0
46,[Mythic] VVH,12,15,14,14,1,2,0,2,0,0
46,Tamerlan,5,19,14,14,1,2,0,2,0,0
46,ногоонзалуу,12,19,14,14,1,2,0,2,0,0
46,JohnWick,12,15,14,14,1,2,0,2,0,0
46,HaruhiSuzumiya,9,21,14,14,1,2,0,2,0,0
46,Djonbol1,7,52,13,13,2,1,0,2,0,0
46,Tiannizu,6,44,13,13,2,1,0,2,0,0
46,Ramzeez,4,44,15,13,2,1,0,2,0,0
46,EdOnCouch,9,27,13,13,2,1,0,1,0,0
46,Intergalactic,7,40,13,13,2,1,0,2,0,0
46,Lokilamadupa,12,66,13,13,2,1,0,2,0,0
46,Hypnotic,6,13,13,13,2,1,0,1,0,0
46,Kaibarash,2,31,19,13,2,1,0,2,0,0
46,PooNaniHunter,9,15,13,13,2,1,0,1,0,0
46,gerundio,8,14,13,13,2,1,0,1,0,0
46,serthan,8,26,13,13,2,1,0,1,0,0
46,AMRLordCoins,8,20,13,13,2,1,0,1,0,0
46,WeaponizedBattleToaster,1,34,18,13,2,1,0,2,0,0
46,ithrowthings,1,13,13,13,2,1,0,1,0,0
46,magic1993,4,28,17,13,2,1,0,1,0,0
46,Jahura_Banu,4,23,16,13,2,1,0,1,0,0
46,UTP,3,16,15,13,2,1,0,1,0,0
46,Skiller1801SK,2,16,16,13,2,1,0,1,0,0
46,MAC,7,17,13,13,2,1,0,1,0,0
46,DeathLine,4,15,14,13,2,1,0,1,0,0
46,Oblongfitzoblong,12,22,13,13,2,1,0,1,0,0
46,Easycake001,1,20,17,13,2,1,0,1,0,0
46,grega1999,1,25,13,13,2,1,0,1,0,0
46,Claume1125,1,13,13,13,2,1,0,1,0,0
46,MrZombor,1,20,19,13,2,1,0,1,0,0
46,£,11,14,13,13,2,1,0,1,0,0
46,T.kusanagi,1,49,18,13,2,1,0,2,0,0
46,Slye,9,15,13,13,2,1,0,1,0,0
46,たこ焼き,12,14,13,13,2,1,0,1,0,0
46,Unique.Esprit,11,14,13,13,2,1,0,1,0,0
46,plaakkon,7,13,13,13,2,1,0,1,0,0
46,Pinkegeier,3,26,17,13,2,1,0,1,0,0
46,kovanova,8,17,13,13,2,1,0,1,0,0
46,Galgorath333,3,41,15,13,2,1,0,2,0,0
46,blackflame64,1,18,18,13,2,1,0,1,0,0
46,yasir,1,58,16,13,2,1,0,2,0,0
46,eddie murphy,9,17,13,13,2,1,0,1,0,0
46,SpaceCat,8,13,13,13,2,1,0,1,0,0
46,facugaba04,3,16,16,13,2,1,0,1,0,0
46,Elvenoracle,1,17,14,13,2,1,0,1,0,0
46,Kietelaar,7,15,13,13,2,1,0,1,0,0
46,JM_Borg_,3,19,19,13,2,1,0,1,0,0
46,Brathering,5,20,13,13,2,1,0,1,0,0
46,dinosaur888,1,26,20,13,2,1,0,1,0,0
46,superslim,10,60,13,13,2,1,0,2,0,0
46,XSITE,11,30,13,13,2,1,0,2,0,0
46,FD_Disaster,3,22,15,13,2,1,0,1,0,0
46,☺Mythic☺ Dragonstorm,12,34,13,13,2,1,0,2,0,0
46,Traconis,3,19,16,13,2,1,0,1,0,0
46,PlinytheEther,10,23,13,13,2,1,0,1,0,0
46,wic3x5,8,14,13,13,2,1,0,1,0,0
46,EricShawn,9,13,13,13,2,1,0,1,0,0
46,shadowstrike42,7,14,13,13,2,1,0,1,0,0
46,strange,6,22,13,13,2,1,0,1,0,0
46,mike0182,12,16,13,13,2,1,0,1,0,0
46,Y°dªfe††,11,17,13,13,2,1,0,1,0,0
46,mayablock,8,14,13,13,2,1,0,1,0,0
46,Jere21ZD,1,15,13,13,2,1,0,1,0,0
46,trent_reznor,8,14,13,13,2,1,0,1,0,0
46,Gandalf,10,38,13,13,2,1,0,2,0,0
46,SatChitAnanda,6,19,13,13,2,1,0,1,0,0
46,-17jkAya-,1,21,21,13,2,1,0,1,0,0
46,energy dorink,9,13,13,13,2,1,0,1,0,0
46,ferzspb,9,13,13,13,2,1,0,1,0,0
46,Xylo Spongium,2,21,17,13,2,1,0,1,0,0
46,ZAFARI,11,16,13,13,2,1,0,1,0,0
46,DrippSinatra,7,13,13,13,2,1,0,1,0,0
46,monStar,12,13,13,13,2,1,0,1,0,0
46,crypto-lite91,11,13,13,13,2,1,0,1,0,0
46,superslim-NCP,8,32,13,13,2,1,0,2,0,0
46,CuCu99,9,13,13,13,2,1,0,1,0,0
46,DRASTICxOUTLAW,7,14,13,13,2,1,0,1,0,0
46,alastor,8,16,13,13,2,1,0,1,0,0
46,GoRiLLaZoR,3,14,14,13,2,1,0,1,0,0
46,AnonCat,8,14,13,13,2,1,0,1,0,0
46,Fantomasek,12,37,13,13,2,1,0,2,0,0
46,Des Petrovich,7,21,13,13,2,1,0,1,0,0
46,Oshay,10,12,12,12,2,1,0,1,0,0
46,maelstrom4880,6,12,12,12,2,1,0,1,0,0
46,sadisteck,11,12,12,12,2,1,0,1,0,0
46,Doppelbock,8,13,12,12,2,1,0,1,0,0
46,DestrucTorT,10,12,12,12,2,1,0,1,0,0
46,Shibanqk,12,32,12,12,2,1,0,2,0,0
46,Slackov,12,13,12,12,2,1,0,1,0,0
46,[Mythic] Unchained,12,12,12,12,2,1,0,1,0,0
46,entling,7,35,12,12,2,1,0,2,0,0
46,,9,30,12,12,2,1,0,2,0,0
46,☺,10,42,12,12,2,1,0,2,0,0
46,Starry Ninja,1,12,12,12,2,1,0,1,0,0
46,imslo,9,37,12,12,2,1,0,2,0,0
46,DisgustingHuman,10,13,12,12,2,1,0,1,0,0
46,AlienWeapon,9,12,12,12,2,1,0,1,0,0
46,.XXOTCXX.,6,18,12,12,2,1,0,1,0,0
46,Bielobog,7,15,12,12,2,1,0,1,0,0
46,sczi*987,6,24,12,12,2,1,0,1,0,0
46,Moneybags,9,12,12,12,2,1,0,1,0,0
46,n!ghtl!ght,10,29,12,12,2,1,0,1,0,0
46,Noice,9,12,12,12,2,1,0,1,0,0
46,amin,11,29,12,12,2,1,0,1,0,0
46,theboogyman,9,12,12,12,2,1,0,1,0,0
46,xcoil,11,15,12,12,2,1,0,1,0,0
46,ZENIMOON,10,23,12,12,2,1,0,1,0,0
46,fluffyhag,9,14,12,12,2,1,0,1,0,0
46,Kenzo_01k,1,40,12,12,2,1,0,2,0,0
46,Dasrauscht,4,12,12,12,2,1,0,1,0,0
46,Hastal Havista,6,12,12,12,2,1,0,1,0,0
46,juliusnakamoto,4,17,12,12,2,1,0,1,0,0
46,rare,10,12,12,12,2,1,0,1,0,0
46,☭,9,28,12,12,2,1,0,1,0,0
46,freedom2020,7,12,12,12,2,1,0,1,0,0
46,Turmbräu,1,15,12,12,2,1,0,1,0,0
46,Kagetora,6,15,12,12,2,1,0,1,0,0
46,Xiato,8,33,12,12,2,1,0,2,0,0
46,angrygnat,6,45,12,12,2,1,0,2,0,0
46,Fan_1922,1,13,12,12,2,1,0,1,0,0
46,Lucifer,12,13,12,12,2,1,0,1,0,0
46,YetiDotETH,11,12,12,12,2,1,0,1,0,0
46,Omegafenix,9,11,11,11,2,1,0,1,0,0
46,chilltown,9,16,11,11,2,1,0,1,0,0
46,Yanicroft,6,14,11,11,2,1,0,1,0,0
46,ronink77,3,11,11,11,2,1,0,1,0,0
46,stachu,7,11,11,11,2,1,0,1,0,0
46,Crunaritti,3,11,11,11,2,1,0,1,0,0
46,Sleeping Goat,9,11,11,11,2,1,0,1,0,0
46,somhidoncs,1,12,11,11,2,1,0,1,0,0
46,TheGreatFrog,3,20,11,11,2,1,0,1,0,0
46,e1ght3,1,11,11,11,2,1,0,1,0,0
46,Wasper,11,33,11,11,2,1,0,2,0,0
46,三日月,12,15,11,11,2,1,0,1,0,0
46,verbalshadow,12,15,11,11,2,1,0,1,0,0
46,Hret1337,10,15,11,11,2,1,0,1,0,0
46,BlackMagic,9,28,11,11,2,1,0,1,0,0
46,BallNChained,8,11,11,11,2,1,0,1,0,0
46,finansisn,10,13,11,11,2,1,0,1,0,0
46,Odaja,8,11,11,11,2,1,0,1,0,0
46,ZhiBo,4,16,11,11,2,1,0,1,0,0
46,Yell,8,11,11,11,2,1,0,1,0,0
46,777mihman777,12,14,11,11,2,1,0,1,0,0
46,Ms. Tanith,3,18,11,11,2,1,0,1,0,0
46,LegndRicky,10,28,11,11,2,1,0,1,0,0
46,MyDogZeus,11,20,11,11,2,1,0,1,0,0
46,Dactar,10,11,11,11,2,1,0,1,0,0
46,X Æ A-12,10,22,11,11,2,1,0,1,0,0
46,sensebe,11,64,11,11,2,1,0,2,0,0
46,ghostofmerln,8,11,11,11,2,1,0,1,0,0
46,gohm,12,15,11,11,2,1,0,1,0,0
46,Brassica7,11,11,11,11,2,1,0,1,0,0
46,dobindubas,8,11,11,11,2,1,0,1,0,0
46,oniru,8,11,11,11,2,1,0,1,0,0
46,AnusMundi,8,13,11,11,2,1,0,1,0,0
46,trilldebeest,10,16,11,11,2,1,0,1,0,0
46,eMeS,9,11,11,11,2,1,0,1,0,0
46,PeakABoo,12,11,11,11,2,1,0,1,0,0
46,Sir Ike Moesha Broflovski,9,33,11,11,2,1,0,2,0,0
46,-=ÐDrîve~ßyE€=-,5,14,11,11,2,1,0,1,0,0
46,DonnyMacArth,1,16,11,11,2,1,0,1,0,0
46,chaoren,12,11,11,11,2,1,0,1,0,0
46,roytutu,11,50,11,11,2,1,0,2,0,0
46,Lewnatic,8,13,11,11,2,1,0,1,0,0
46,Beacze,9,22,11,11,2,1,0,1,0,0
46,PatrickG,11,11,11,11,2,1,0,1,0,0
46,NAGIBATOR,10,11,10,10,3,0,0,0,0,0
46,Saint777,9,11,10,10,3,0,0,0,0,0
46,お金猫,12,10,10,10,3,0,0,0,0,0
46,Bozie,6,11,10,10,3,0,0,0,0,0
46,ƉƉƉƉ,7,43,10,10,3,0,0,1,0,0
46,mattyesq,12,16,10,10,3,0,0,0,0,0
46,ghostrestaurantlab_inago,9,10,10,10,3,0,0,0,0,0
46,Sadness,3,10,10,10,3,0,0,0,0,0
46,Biggz0522,7,17,10,10,3,0,0,0,0,0
46,rob31rob31,8,15,10,10,3,0,0,0,0,0
46,benyasu,12,10,10,10,3,0,0,0,0,0
46,Roha1111,5,10,10,10,3,0,0,0,0,0
46,Mortal,4,16,10,10,3,0,0,0,0,0
46,Yogalholic,6,16,10,10,3,0,0,0,0,0
46,MustangKirby,8,25,10,10,3,0,0,0,0,0
46,Rvu_Vsem_Duplo,7,13,10,10,3,0,0,0,0,0
46,skankhunt42,8,10,10,10,3,0,0,0,0,0
46,Makakka,8,10,10,10,3,0,0,0,0,0
46,Bumboklaat,9,12,10,10,3,0,0,0,0,0
46,Excidium,9,50,10,10,3,0,0,1,0,0
46,blondin,5,20,10,10,3,0,0,0,0,0
46,Ptothehyphen,8,10,10,10,3,0,0,0,0,0
46,AdventureStory,8,17,10,10,3,0,0,0,0,0
46,plakkieplakgom,1,10,10,10,3,0,0,0,0,0
46,CardShop,11,17,10,10,3,0,0,0,0,0
46,HardRockMiner,8,10,10,10,3,0,0,0,0,0
46,Slippy P,1,12,10,10,3,0,0,0,0,0
46,swimlane72,9,12,10,10,3,0,0,0,0,0
46,tactics1,8,12,10,10,3,0,0,0,0,0
46,Elfo Strego,4,13,10,10,3,0,0,0,0,0
46,Marigoth,9,12,10,10,3,0,0,0,0,0
46,幻,11,10,10,10,3,0,0,0,0,0
46,EtherKnight,8,11,9,9,3,0,0,0,0,0
46,Manigoldo,6,17,9,9,3,0,0,0,0,0
46,victorgasay96,6,17,9,9,3,0,0,0,0,0
46,Koyaanisqatsi,7,10,9,9,3,0,0,0,0,0
46,chacozum,3,17,9,9,3,0,0,0,0,0
46,Nanich,7,15,9,9,3,0,0,0,0,0
46,Skoulz69,1,9,9,9,3,0,0,0,0,0
46,Aadi1912,10,15,9,9,3,0,0,0,0,0
46,WhiteWhale,5,19,9,9,3,0,0,0,0,0
46,Yaratsu,8,9,9,9,3,0,0,0,0,0
46,Afronizer,8,30,9,9,3,0,0,1,0,0
46,Sir Tango,12,9,9,9,3,0,0,0,0,0
46,mamont123,9,9,9,9,3,0,0,0,0,0
46,Starskreem,6,9,9,9,3,0,0,0,0,0
46,bwindi,5,9,9,9,3,0,0,0,0,0
46,Thirdman,8,10,9,9,3,0,0,0,0,0
46,Deil713009,4,36,9,9,3,0,0,1,0,0
46,nightartist,1,9,9,9,3,0,0,0,0,0
46,Danbog,8,9,9,9,3,0,0,0,0,0
46,GOLDRAGON,10,9,9,9,3,0,0,0,0,0
46,MasterMirror,8,9,9,9,3,0,0,0,0,0
46,iluvsheep,7,11,9,9,3,0,0,0,0,0
46,Lifeboy,9,27,9,9,3,0,0,0,0,0
46,Acecompac,8,9,9,9,3,0,0,0,0,0
46,⅋,4,9,9,9,3,0,0,0,0,0
46,Profanity,1,9,9,9,3,0,0,0,0,0
46,ra,8,9,9,9,3,0,0,0,0,0
46,6theskull6smasher6,2,9,9,9,3,0,0,0,0,0
46,RedDeath,12,9,9,9,3,0,0,0,0,0
46,Shaman20200,5,9,9,9,3,0,0,0,0,0
46,Berezovysok,7,12,9,9,3,0,0,0,0,0
46,♪♪♪♪♪,9,9,9,9,3,0,0,0,0,0
46,Rievserg,8,9,9,9,3,0,0,0,0,0
46,Khaiel,3,9,9,9,3,0,0,0,0,0
46,TheUnknown,8,9,9,9,3,0,0,0,0,0
46,jiiiklikli,5,9,9,9,3,0,0,0,0,0
46,bouncetree,6,24,9,9,3,0,0,0,0,0
46,⌀,9,9,9,9,3,0,0,0,0,0
46,Spartakush,6,8,8,8,3,0,0,0,0,0
46,ReportMe,8,8,8,8,3,0,0,0,0,0
46,Aeternity,8,8,8,8,3,0,0,0,0,0
46,MuffinMonkey,8,8,8,8,3,0,0,0,0,0
46,CryptoJesse,7,8,8,8,3,0,0,0,0,0
46,Motortor,5,8,8,8,3,0,0,0,0,0
46,BestYaSee,1,8,8,8,3,0,0,0,0,0
46,DeusEM,8,8,8,8,3,0,0,0,0,0
46,King_Liamidas,6,8,8,8,3,0,0,0,0,0
46,Santana,7,9,8,8,3,0,0,0,0,0
46,TradingSocks,7,25,8,8,3,0,0,0,0,0
46,dezilver,11,14,8,8,3,0,0,0,0,0
46,Chain0tater,6,9,8,8,3,0,0,0,0,0
46,pornhub,11,8,8,8,3,0,0,0,0,0
46,jackow80,8,13,8,8,3,0,0,0,0,0
46,Cryptotastic,12,8,8,8,3,0,0,0,0,0
46,yo.achim,5,14,8,8,3,0,0,0,0,0
46,kentsutse,5,8,8,8,3,0,0,0,0,0
46,DanielBeemo,7,8,8,8,3,0,0,0,0,0
46,Kolesiff,12,8,8,8,3,0,0,0,0,0
46,Buggy,10,8,8,8,3,0,0,0,0,0
46,SniffOnMe,12,8,8,8,3,0,0,0,0,0
46,Akiro,6,8,8,8,3,0,0,0,0,0
46,emiliomorles,6,8,8,8,3,0,0,0,0,0
46,Ultra-Ice,3,8,8,8,3,0,0,0,0,0
46,PaxMagnus,8,8,8,8,3,0,0,0,0,0
46,Stoneward,8,11,8,8,3,0,0,0,0,0
46,Smiley31,1,8,8,8,3,0,0,0,0,0
46,gecheverria86,7,8,8,8,3,0,0,0,0,0
46,~o0GiN0o~,8,8,8,8,3,0,0,0,0,0
46,MarcheG,7,15,7,7,2,0,0,0,0,0
46,egorpanzeev,4,7,7,7,2,0,0,0,0,0
46,HungLikeHippo,8,7,7,7,2,0,0,0,0,0
46,NoT TodaY,9,7,7,7,2,0,0,0,0,0
46,GV,4,20,7,7,2,0,0,0,0,0
46,idncrypto67,6,10,7,7,2,0,0,0,0,0
46,quancej,8,7,7,7,2,0,0,0,0,0
46,zur_rama111,8,7,7,7,2,0,0,0,0,0
46,Roberto23,6,9,7,7,2,0,0,0,0,0
46,HypnoGremlin,5,7,7,7,2,0,0,0,0,0
46,cryptokcmo,1,22,7,7,2,0,0,0,0,0
46,ThatCrooks,5,26,7,7,2,0,0,0,0,0
46,henningju,9,7,7,7,2,0,0,0,0,0
46,GodEmiya,1,7,7,7,2,0,0,0,0,0
46,FahrSai99,5,7,7,7,2,0,0,0,0,0
46,Overlordtrial,2,7,7,7,2,0,0,0,0,0
46,POOKIDS420,8,7,7,7,2,0,0,0,0,0
46,N0fx,7,7,7,7,2,0,0,0,0,0
46,romansito,7,12,7,7,2,0,0,0,0,0
46,_Allack_,4,7,7,7,2,0,0,0,0,0
46,Anaxamander,8,7,7,7,2,0,0,0,0,0
46,ZACHISNICE,3,19,7,7,2,0,0,0,0,0
46,Noshlarr,10,7,7,7,2,0,0,0,0,0
46,nuclearmonk,8,7,7,7,2,0,0,0,0,0
46,cmosc89,8,11,7,7,2,0,0,0,0,0
46,Monstr72,1,7,7,7,2,0,0,0,0,0
46,Zorongo,5,7,7,7,2,0,0,0,0,0
46,WolfLord,5,7,7,7,2,0,0,0,0,0
46,trakzenator,8,7,7,7,2,0,0,0,0,0
46,Sir_notAb0t,10,7,7,7,2,0,0,0,0,0
46,Sergee25,5,22,7,7,2,0,0,0,0,0
46,CryptoLich1312,5,8,7,7,2,0,0,0,0,0
46,Digital Oppression,9,7,7,7,2,0,0,0,0,0
46,Apexlion,7,7,7,7,2,0,0,0,0,0
46,Capta1nhowdy,4,7,7,7,2,0,0,0,0,0
46,lilchane,1,7,7,7,2,0,0,0,0,0
46,SteelRat,12,7,7,7,2,0,0,0,0,0
46,SheNut,6,8,7,7,2,0,0,0,0,0
46,Nyktimené,6,6,6,6,2,0,0,0,0,0
46,z4tm99vr,8,6,6,6,2,0,0,0,0,0
46,DaCatzMeow,12,6,6,6,2,0,0,0,0,0
46,Baionero,1,6,6,6,2,0,0,0,0,0
46,Doompig,5,6,6,6,2,0,0,0,0,0
46,Deep,12,6,6,6,2,0,0,0,0,0
46,Naio,8,6,6,6,2,0,0,0,0,0
46,forest gate,1,9,6,6,2,0,0,0,0,0
46,-ONETOC-,2,6,6,6,2,0,0,0,0,0
46,iflion,9,6,6,6,2,0,0,0,0,0
46,ø,12,6,6,6,2,0,0,0,0,0
46,Headsnap,6,6,6,6,2,0,0,0,0,0
46,Andantino,11,6,6,6,2,0,0,0,0,0
46,CH1P7,6,6,6,6,2,0,0,0,0,0
46,karabas666,9,6,6,6,2,0,0,0,0,0
46,sevenjay,1,6,6,6,2,0,0,0,0,0
46,Grimmcrypter,5,6,6,6,2,0,0,0,0,0
46,YorketGod,1,6,6,6,2,0,0,0,0,0
46,Edgecaser,9,6,6,6,2,0,0,0,0,0
46,Tru+hSe3ker,11,6,6,6,2,0,0,0,0,0
46,obama,8,6,6,6,2,0,0,0,0,0
46,apix3222,6,15,6,6,2,0,0,0,0,0
46,vladyser5554,6,6,6,6,2,0,0,0,0,0
46,7figurecrypto.com,7,6,6,6,2,0,0,0,0,0
46,vogimania,7,6,6,6,2,0,0,0,0,0
46,Bobmynobster,4,6,6,6,2,0,0,0,0,0
46,KhanVovan,6,25,6,6,2,0,0,0,0,0
46,Herodot20,6,6,6,6,2,0,0,0,0,0
46,MadMax,10,6,6,6,2,0,0,0,0,0
46,ProAndyKiller,10,6,6,6,2,0,0,0,0,0
46,Bitcoin,11,6,6,6,2,0,0,0,0,0
46,HeresYourTollTroll,8,36,6,6,2,0,0,1,0,0
46,UnjustOne,12,6,6,6,2,0,0,0,0,0
46,VIZI,8,6,6,6,2,0,0,0,0,0
46,Jinimage,5,6,6,6,2,0,0,0,0,0
46,pokerbjj,8,6,6,6,2,0,0,0,0,0
46,filestorm,1,6,6,6,2,0,0,0,0,0
46,Sapien Jon,8,6,6,6,2,0,0,0,0,0
46,alvaroheredia2,1,6,6,6,2,0,0,0,0,0
46,PrinceMing88,4,6,6,6,2,0,0,0,0,0
46,Stoof,12,6,6,6,2,0,0,0,0,0
46,mzob,8,6,6,6,2,0,0,0,0,0
46,BasVanSpanker,10,6,6,6,2,0,0,0,0,0
46,luishimaru,1,5,5,5,2,0,0,0,0,0
46,krashnovr,12,5,5,5,2,0,0,0,0,0
46,²,9,5,5,5,2,0,0,0,0,0
46,MrMousey,8,5,5,5,2,0,0,0,0,0
46,Fiofan,10,5,5,5,2,0,0,0,0,0
46,Gypo,7,5,5,5,2,0,0,0,0,0
46,Denker,12,5,5,5,2,0,0,0,0,0
46,gu.cards,9,5,5,5,2,0,0,0,0,0
46,dalahad,11,5,5,5,2,0,0,0,0,0
46,Mage Zyron,9,5,5,5,2,0,0,0,0,0
46,LCHammer,12,5,5,5,2,0,0,0,0,0
46,karlito636,7,5,5,5,2,0,0,0,0,0
46,MaxMatheus,8,5,5,5,2,0,0,0,0,0
46,Zeleios,10,5,5,5,2,0,0,0,0,0
46,Odin,12,5,5,5,2,0,0,0,0,0
46,BlocksUnchained,11,5,5,5,2,0,0,0,0,0
46,Cindy,7,5,5,5,2,0,0,0,0,0
46,andreaskanel,7,5,5,5,2,0,0,0,0,0
46,ngeunit1,9,5,5,5,2,0,0,0,0,0
46,catello78,7,5,5,5,2,0,0,0,0,0
46,ROBOB210,3,5,5,5,2,0,0,0,0,0
46,SpicoliAndreti,7,5,5,5,2,0,0,0,0,0
46,John McClane,12,5,5,5,2,0,0,0,0,0
46,Meditate_More,4,5,5,5,2,0,0,0,0,0
46,SHINZON,7,5,5,5,2,0,0,0,0,0
46,adal111,8,5,5,5,2,0,0,0,0,0
46,samofalov,1,5,5,5,2,0,0,0,0,0
46,PrinceH,8,5,5,5,2,0,0,0,0,0
46,Treborsawi,9,5,5,5,2,0,0,0,0,0
46,bang39,10,5,5,5,2,0,0,0,0,0
46,AddaxHD,8,5,5,5,2,0,0,0,0,0
46,Goder,6,5,5,5,2,0,0,0,0,0
46,Rayde,6,5,5,5,2,0,0,0,0,0
46,Blockfisher,7,5,5,5,2,0,0,0,0,0
46,Bitsavage,8,5,5,5,2,0,0,0,0,0
46,The7tard,7,4,4,4,1,0,0,0,0,0
46,narres2252,4,4,4,4,1,0,0,0,0,0
46,dad,7,4,4,4,1,0,0,0,0,0
46,AIDAN420,8,4,4,4,1,0,0,0,0,0
46,nihao888,10,4,4,4,1,0,0,0,0,0
46,SealedCommander,1,4,4,4,1,0,0,0,0,0
46,Gabriel,10,4,4,4,1,0,0,0,0,0
46,arashi9x,1,4,4,4,1,0,0,0,0,0
46,Balthazar,7,4,4,4,1,0,0,0,0,0
46,OPEPEN-MAN,11,4,4,4,1,0,0,0,0,0
46,crypteer,2,4,4,4,1,0,0,0,0,0
46,snak3.eth,4,4,4,4,1,0,0,0,0,0
46,Yompster,10,4,4,4,1,0,0,0,0,0
46,wiim,7,4,4,4,1,0,0,0,0,0
46,freaky44,7,4,4,4,1,0,0,0,0,0
46,TheNotoriouszz,9,4,4,4,1,0,0,0,0,0
46,Utar Vicar of Pebbles,6,4,4,4,1,0,0,0,0,0
46,bacoor  hbwallet,7,4,4,4,1,0,0,0,0,0
46,HappyMan811,3,4,4,4,1,0,0,0,0,0
46,RoMkA737,5,4,4,4,1,0,0,0,0,0
46,t0w,9,4,4,4,1,0,0,0,0,0
46,rmnwnsx_gu,1,4,4,4,1,0,0,0,0,0
46,のんちゃん,12,4,4,4,1,0,0,0,0,0
46,Adamanty,8,4,4,4,1,0,0,0,0,0
46,AngryLookingGuy,5,4,4,4,1,0,0,0,0,0
46,ZEALOT,11,4,4,4,1,0,0,0,0,0
46,Jdeluxe,7,4,4,4,1,0,0,0,0,0
46,chronosXIII,1,4,4,4,1,0,0,0,0,0
46,Murassame,1,4,4,4,1,0,0,0,0,0
46,MekMirek,6,4,4,4,1,0,0,0,0,0
46,nmkenji,5,4,4,4,1,0,0,0,0,0
46,Hazy1uk2020,4,4,4,4,1,0,0,0,0,0
46,Babooshka,6,4,4,4,1,0,0,0,0,0
46,Hatch2342,1,4,4,4,1,0,0,0,0,0
46,Tafut Aga,5,4,4,4,1,0,0,0,0,0
46,ibloirio,1,4,4,4,1,0,0,0,0,0
46,Skeet_0n,5,4,4,4,1,0,0,0,0,0
46,🦁,12,4,4,4,1,0,0,0,0,0
46,PAPILLON,1,4,4,4,1,0,0,0,0,0
46,Diablokgb,9,3,3,3,1,0,0,0,0,0
46,moogmother,3,3,3,3,1,0,0,0,0,0
46,Kyuhisan,5,3,3,3,1,0,0,0,0,0
46,Nbecerril53o,7,3,3,3,1,0,0,0,0,0
46,mmax,9,3,3,3,1,0,0,0,0,0
46,Harloon,7,3,3,3,1,0,0,0,0,0
46,bobcryptolover,6,3,3,3,1,0,0,0,0,0
46,itzdevil,2,3,3,3,1,0,0,0,0,0
46,Wpaladin,4,3,3,3,1,0,0,0,0,0
46,Angel_RS,3,3,3,3,1,0,0,0,0,0
46,Thoribald,1,3,3,3,1,0,0,0,0,0
46,PeriodBloodMouthWash,8,3,3,3,1,0,0,0,0,0
46,onlys,5,3,3,3,1,0,0,0,0,0
46,Oleg326756,9,3,3,3,1,0,0,0,0,0
46,katkadno11,3,3,3,3,1,0,0,0,0,0
46,sargecasey,8,3,3,3,1,0,0,0,0,0
46,VonMises,12,3,3,3,1,0,0,0,0,0
46,vadim1105,6,3,3,3,1,0,0,0,0,0
46,marukaziri,9,3,3,3,1,0,0,0,0,0
46,stevecronin,8,3,3,3,1,0,0,0,0,0
46,glaminator,5,3,3,3,1,0,0,0,0,0
46,davirozz,7,3,3,3,1,0,0,0,0,0
46,Jayshawn,8,3,3,3,1,0,0,0,0,0
46,Michael3,9,3,3,3,1,0,0,0,0,0
46,concordman,5,3,3,3,1,0,0,0,0,0
46,tengchiang,8,3,3,3,1,0,0,0,0,0
46,PeterD,8,3,3,3,1,0,0,0,0,0
46,macbaren,6,3,3,3,1,0,0,0,0,0
46,tankthebank,8,3,3,3,1,0,0,0,0,0
46,sharks15,2,3,3,3,1,0,0,0,0,0
46,Channel9,5,3,3,3,1,0,0,0,0,0
46,lucky_hawks,1,3,3,3,1,0,0,0,0,0
46,megro,5,3,3,3,1,0,0,0,0,0
46,Cdg,3,3,3,3,1,0,0,0,0,0
46,TWRWMOMGU,6,3,3,3,1,0,0,0,0,0
46,Cerberus,7,3,3,3,1,0,0,0,0,0
46,chleba,10,3,3,3,1,0,0,0,0,0
46,Mother_Nature,1,3,3,3,1,0,0,0,0,0
46,BancoDeCrypto,6,3,3,3,1,0,0,0,0,0
46,Bayou-Bengal,7,3,3,3,1,0,0,0,0,0
46,Mel0n102,9,3,3,3,1,0,0,0,0,0
46,ArzrA,10,3,3,3,1,0,0,0,0,0
46,sebstar123,7,3,3,3,1,0,0,0,0,0
46,CaptainMurika,5,3,3,3,1,0,0,0,0,0
46,BL4NKE7,8,3,3,3,1,0,0,0,0,0
46,Ninjaturtle,7,3,3,3,1,0,0,0,0,0
46,crusty jane,7,3,3,3,1,0,0,0,0,0
46,Shinjiz,7,3,3,3,1,0,0,0,0,0
46,basiliscus,1,3,3,3,1,0,0,0,0,0
46,teawaterwire,6,3,3,3,1,0,0,0,0,0
46,Master_Elliott,4,3,3,3,1,0,0,0,0,0
46,drchronic01,10,2,2,2,0,0,0,0,0,0
46,Furolorrn,3,2,2,2,0,0,0,0,0,0
46,crypto dindirindina,3,2,2,2,0,0,0,0,0,0
46,Ax-S.C.B,4,2,2,2,0,0,0,0,0,0
46,samsonquin,1,2,2,2,0,0,0,0,0,0
46,Delozix1,1,2,2,2,0,0,0,0,0,0
46,masanari,7,2,2,2,0,0,0,0,0,0
46,Barbz,7,2,2,2,0,0,0,0,0,0
46,tlatoani,8,2,2,2,0,0,0,0,0,0
46,kolia31802,8,2,2,2,0,0,0,0,0,0
46,toomey779,6,2,2,2,0,0,0,0,0,0
46,Kage Sama,7,2,2,2,0,0,0,0,0,0
46,ThotHtheAtlanteaN,9,2,2,2,0,0,0,0,0,0
46,Tribone,8,2,2,2,0,0,0,0,0,0
46,LittleMeTime,8,2,2,2,0,0,0,0,0,0
46,ArrkinPrimis,6,2,2,2,0,0,0,0,0,0
46,Guardian50,3,2,2,2,0,0,0,0,0,0
46,the.chief,5,2,2,2,0,0,0,0,0,0
46,luffy1717,1,2,2,2,0,0,0,0,0,0
46,blakyeltoro,5,2,2,2,0,0,0,0,0,0
46,IcoN,1,2,2,2,0,0,0,0,0,0
46,jcrypto,3,2,2,2,0,0,0,0,0,0
46,blockchaingames.fun,9,2,2,2,0,0,0,0,0,0
46,DeMoN666,11,2,2,2,0,0,0,0,0,0
46,Artemus,4,2,2,2,0,0,0,0,0,0
46,SorusRen,1,2,2,2,0,0,0,0,0,0
46,Yurij,8,2,2,2,0,0,0,0,0,0
46,Subesock,7,2,2,2,0,0,0,0,0,0
46,Montrix,8,2,2,2,0,0,0,0,0,0
46,HazyDayz,1,2,2,2,0,0,0,0,0,0
46,matt690,7,2,2,2,0,0,0,0,0,0
46,Zaklínač,6,2,2,2,0,0,0,0,0,0
46,P2THEDRO,7,2,2,2,0,0,0,0,0,0
46,Xboot,5,2,2,2,0,0,0,0,0,0
46,maovader888,7,2,2,2,0,0,0,0,0,0
46,evas,3,2,2,2,0,0,0,0,0,0
46,VladTheGod,5,2,2,2,0,0,0,0,0,0
46,Naaaaaaaaaas,10,2,2,2,0,0,0,0,0,0
46,Yodoggy.eth,8,2,2,2,0,0,0,0,0,0
46,V-Tep,7,2,2,2,0,0,0,0,0,0
46,intacrypt,5,2,2,2,0,0,0,0,0,0
46,cehu,8,2,2,2,0,0,0,0,0,0
46,Mr.Moonlight,9,2,2,2,0,0,0,0,0,0
46,Strikeroff,8,2,2,2,0,0,0,0,0,0
46,nightskybrv,5,2,2,2,0,0,0,0,0,0
46,cbellery,1,2,2,2,0,0,0,0,0,0
46,WildCard0341,7,2,2,2,0,0,0,0,0,0
46,turgor777,7,2,2,2,0,0,0,0,0,0
46,vinnyp34,7,2,2,2,0,0,0,0,0,0
46,Taetae21,3,2,2,2,0,0,0,0,0,0
46,w/c,7,2,2,2,0,0,0,0,0,0
46,bit_stan,12,2,2,2,0,0,0,0,0,0
46,shadowkill{599],4,2,2,2,0,0,0,0,0,0
46,shock,12,2,2,2,0,0,0,0,0,0
46,quokku,11,2,2,2,0,0,0,0,0,0
46,HeXian68,1,2,2,2,0,0,0,0,0,0
46,coSMIX,7,2,2,2,0,0,0,0,0,0
46,cryptoznewb,11,2,2,2,0,0,0,0,0,0
46,Riddlept,9,1,1,1,0,0,0,0,0,0
46,mundobitcoin,1,1,1,1,0,0,0,0,0,0
46,Groootz,6,1,1,1,0,0,0,0,0,0
46,El Dios Desencadenado,9,1,1,1,0,0,0,0,0,0
46,MangoCinnamon,1,1,1,1,0,0,0,0,0,0
46,axordahaxor,9,1,1,1,0,0,0,0,0,0
46,Toad Smoke,7,1,1,1,0,0,0,0,0,0
46,Blunt Lord,1,1,1,1,0,0,0,0,0,0
46,o-o,6,1,1,1,0,0,0,0,0,0
46,Triquadian,1,1,1,1,0,0,0,0,0,0
46,SpicySquid,4,1,1,1,0,0,0,0,0,0
46,Turrican,1,1,1,1,0,0,0,0,0,0
46,shadowstep33,7,1,1,1,0,0,0,0,0,0
46,Sonniwins,1,1,1,1,0,0,0,0,0,0
46,polter.pommes,4,1,1,1,0,0,0,0,0,0
46,Merkuriusmelv0,1,1,1,1,0,0,0,0,0,0
46,maragigayan,9,1,1,1,0,0,0,0,0,0
46,kirroyale,6,1,1,1,0,0,0,0,0,0
46,Bubbnubb,3,1,1,1,0,0,0,0,0,0
46,ozimodan,12,1,1,1,0,0,0,0,0,0
46,Gradende,1,1,1,1,0,0,0,0,0,0
46,jetjockey,9,1,1,1,0,0,0,0,0,0
46,Acryos der Graue,5,1,1,1,0,0,0,0,0,0
46,Sergey26905,6,1,1,1,0,0,0,0,0,0
46,Syonidehyde1165,5,1,1,1,0,0,0,0,0,0
46,Olymp,6,1,1,1,0,0,0,0,0,0
46,BABYU,1,1,1,1,0,0,0,0,0,0
46,Njoiyt,4,1,1,1,0,0,0,0,0,0
46,baltzfx1,1,1,1,1,0,0,0,0,0,0
46,HangOver,1,1,1,1,0,0,0,0,0,0
46,mmGRE3Nww,8,1,1,1,0,0,0,0,0,0
46,Giga_bastart,3,1,1,1,0,0,0,0,0,0
46,EmilED358,1,1,1,1,0,0,0,0,0,0
46,Daniellinder,4,1,1,1,0,0,0,0,0,0
46,dedemon,9,1,1,1,0,0,0,0,0,0
46,hosein.mehrab,5,1,1,1,0,0,0,0,0,0
46,TORGOVIY MARKET,5,1,1,1,0,0,0,0,0,0
46,cobraKing,1,1,1,1,0,0,0,0,0,0
46,Hanri,1,1,1,1,0,0,0,0,0,0
46,[Mythic] Dookis,12,1,1,1,0,0,0,0,0,0
46,SonGokuBg,11,1,1,1,0,0,0,0,0,0
46,s1nn2d123,1,1,1,1,0,0,0,0,0,0
46,dmitrievme9,1,1,1,1,0,0,0,0,0,0
46,KairosMGW,1,1,1,1,0,0,0,0,0,0
46,manckys1126,8,1,1,1,0,0,0,0,0,0
46,katkadno13,2,1,1,1,0,0,0,0,0,0
46,Varick,8,1,1,1,0,0,0,0,0,0
46,robotdeniro,7,1,1,1,0,0,0,0,0,0
46,fd204,10,1,1,1,0,0,0,0,0,0
46,Wizardof0z,10,1,1,1,0,0,0,0,0,0
46,Staff Phyre,3,1,1,1,0,0,0,0,0,0
46,Labelkill,6,1,1,1,0,0,0,0,0,0
46,SneezyDwarf,8,1,1,1,0,0,0,0,0,0
46,Fifazocker118,8,1,1,1,0,0,0,0,0,0
46,Bobb1e00,1,1,1,1,0,0,0,0,0,0
46,1max112,5,8,1,1,0,0,0,0,0,0
46,BADMINTONERO16,2,1,1,1,0,0,0,0,0,0
46,ToSHiK_1,1,1,1,1,0,0,0,0,0,0
46,Axoneq,2,1,1,1,0,0,0,0,0,0
46,gerytarium,1,1,1,1,0,0,0,0,0,0
46,Antonio8800,1,1,1,1,0,0,0,0,0,0
46,Chucky77,1,1,1,1,0,0,0,0,0,0
46,GoblinKing,11,1,1,1,0,0,0,0,0,0
46,SalteeKibosh,3,1,1,1,0,0,0,0,0,0
46,Michellie420,3,1,1,1,0,0,0,0,0,0
46,Sir_Nautheim,4,1,1,1,0,0,0,0,0,0
46,Achilles64,3,1,1,1,0,0,0,0,0,0
46,Edstalker,6,1,1,1,0,0,0,0,0,0
46,Bamtamuu,1,1,1,1,0,0,0,0,0,0
46,TheShark12,1,1,1,1,0,0,0,0,0,0
46,ProfessorBellBottom,11,1,1,1,0,0,0,0,0,0
46,AmericanIcarus,8,1,1,1,0,0,0,0,0,0
46,ChaoticNeutral,5,1,1,1,0,0,0,0,0,0
46,MrEagle,6,1,1,1,0,0,0,0,0,0
46,BuidloBagins,11,1,1,1,0,0,0,0,0,0
46,JKa,2,1,1,1,0,0,0,0,0,0
46,Skallywag,1,1,1,1,0,0,0,0,0,0
46,destravous,9,1,1,1,0,0,0,0,0,0
46,Arrogance,1,1,1,1,0,0,0,0,0,0
46,GitanoOficial,1,1,1,1,0,0,0,0,0,0
46,Totemsh,8,1,1,1,0,0,0,0,0,0
46,Kappacino,9,1,1,1,0,0,0,0,0,0
46,Czechmate23,1,1,1,1,0,0,0,0,0,0
46,cheeseburger,7,1,1,1,0,0,0,0,0,0
46,highkitties@gmail.com,5,1,1,1,0,0,0,0,0,0
46,Ayo,12,1,1,1,0,0,0,0,0,0
46,timothyevan,5,1,1,1,0,0,0,0,0,0
46,Blitzer407,1,1,1,1,0,0,0,0,0,0
46,dert1114,7,1,1,1,0,0,0,0,0,0
46,xanndex,11,1,1,1,0,0,0,0,0,0
46,learn&earn,1,1,1,1,0,0,0,0,0,0
46,Dmitry_Jma,6,1,1,1,0,0,0,0,0,0
46,Mlexon,6,1,1,1,0,0,0,0,0,0
46,CrazyShaman,8,1,1,1,0,0,0,0,0,0
46,ShadowMagic,9,1,1,1,0,0,0,0,0,0
46,Rugdealer,5,1,1,1,0,0,0,0,0,0
46,ForlornHope,6,1,1,1,0,0,0,0,0,0
46,margolisna,7,1,1,1,0,0,0,0,0,0
46,MylteMilioner,1,1,1,1,0,0,0,0,0,0
46,moon,7,1,1,1,0,0,0,0,0,0
46,Dbreck,1,1,1,1,0,0,0,0,0,0
46,Gilbtron,1,1,1,1,0,0,0,0,0,0
46,GL1TCH,9,1,1,1,0,0,0,0,0,0
46,oldemate,7,1,1,1,0,0,0,0,0,0
46,ecstaticgu,8,1,1,1,0,0,0,0,0,0
46,Paka-chi,5,1,1,1,0,0,0,0,0,0
46,RoadRunner42,6,1,1,1,0,0,0,0,0,0
46,Khazrakh,11,1,1,1,0,0,0,0,0,0
46,Canubis,11,1,1,1,0,0,0,0,0,0
46,UmarNafay,1,1,1,1,0,0,0,0,0,0
47,のんちゃん,11,34,23,23,0,0,3,2,0,2
47,Apollo,12,22,22,22,0,0,3,0,0,2
47,[Mythic] revan,12,30,22,22,0,0,3,1,0,2
47,The38th,12,31,22,22,0,0,3,1,0,2
47,自然,12,31,22,22,0,0,3,1,0,2
47,rl958,12,33,21,21,0,0,2,1,2,1
47,Ἄρης,12,21,21,21,0,0,2,0,2,1
47,Wezz,12,31,20,20,0,1,1,2,1,1
47,dallas_barr,12,20,20,20,0,1,1,1,1,1
47,[tst] Freedan,12,31,20,20,0,1,1,2,1,1
47,[Pulse] v2,11,30,20,20,0,1,1,2,1,1
47,幻,12,20,20,20,0,1,1,1,1,1
47,Mirage88,12,32,19,19,0,2,1,1,2,0
47,yukineko,10,19,19,19,0,2,1,0,2,0
47,flex13,12,31,19,19,0,2,1,1,2,0
47,Longy,12,35,19,19,0,2,1,1,2,0
47,UnjustOne,11,19,19,19,0,2,1,0,2,0
47,[Mythic] VVH,12,19,19,19,0,2,1,0,2,0
47,ногоонзалуу,12,28,19,19,0,2,1,0,2,0
47,Akilsainon,12,18,18,18,0,3,0,0,2,0
47,Oxn,9,30,18,18,0,3,0,1,2,0
47,LCHammer,12,23,18,18,0,3,0,0,2,0
47,GGian,12,30,18,18,0,3,0,1,2,0
47,Charles Utkins,12,45,18,18,0,3,0,1,2,0
47,PleaseDontRopeMe,9,31,19,18,0,3,0,1,2,0
47,[tst]cautionfun,12,18,18,18,0,3,0,0,2,0
47,C#,11,31,18,18,0,3,0,1,2,0
47,777mihman777,10,31,18,18,0,3,0,1,2,0
47,Ares,9,34,18,18,0,3,0,1,2,0
47,V-Hirvi,12,49,18,18,0,3,0,1,2,0
47,Gandharva,12,30,18,18,0,3,0,1,2,0
47,Nininiao,12,33,18,18,0,3,0,1,2,0
47,chaoren,12,20,18,18,0,3,0,0,2,0
47,DaCatzMeow,10,17,17,17,1,2,0,0,2,0
47,Demolisher,8,30,17,17,1,2,0,1,2,0
47,SLIB,9,41,17,17,1,2,0,1,2,0
47,menelvagor,8,22,18,17,1,2,0,0,2,0
47,Slackov,12,18,17,17,1,2,0,0,2,0
47,Ckastigador,11,24,17,17,1,2,0,0,2,0
47,Wasper,12,22,17,17,1,2,0,0,2,0
47,popovanton89,12,33,17,17,1,2,0,1,2,0
47,PHadzhiev,8,17,17,17,1,2,0,0,2,0
47,noteboom,10,30,17,17,1,2,0,1,2,0
47,maybs,8,18,18,17,1,2,0,0,2,0
47,Galragg,8,17,17,17,1,2,0,0,2,0
47,amin,8,26,18,17,1,2,0,0,2,0
47,‎,12,32,17,17,1,2,0,1,2,0
47,z3ll,12,17,17,17,1,2,0,0,2,0
47,Surface2AirMissle,8,18,18,17,1,2,0,0,2,0
47,X Æ A-12,8,43,20,17,1,2,0,1,2,0
47,脈動,12,18,17,17,1,2,0,0,2,0
47,XSITE,8,20,20,17,1,2,0,0,2,0
47,魔junior,12,19,17,17,1,2,0,0,2,0
47,quantumgamble,8,26,18,17,1,2,0,0,2,0
47,LordDarktempler,11,24,17,17,1,2,0,0,2,0
47,EricShawn,8,19,17,17,1,2,0,0,2,0
47,♪♪♪♪♪,8,17,17,17,1,2,0,0,2,0
47,superslim-NCP,8,30,19,17,1,2,0,1,2,0
47,Paradime,8,18,18,17,1,2,0,0,2,0
47,EatTheRich,10,34,17,17,1,2,0,1,2,0
47,20$deck,7,22,22,16,0,3,0,1,1,0
47,a,12,16,16,16,0,3,0,1,1,0
47,mattyesq,9,20,16,16,0,3,0,1,1,0
47,entling,8,20,16,16,0,3,0,1,1,0
47,smirnawf,9,16,16,16,0,3,0,1,1,0
47,GodMode,7,20,16,16,0,3,0,1,1,0
47,Pain,7,65,16,16,0,3,0,2,1,0
47,Þ,10,16,16,16,0,3,0,1,1,0
47,SolarMkd,10,17,16,16,0,3,0,1,1,0
47,Bielobog,7,30,20,16,0,3,0,2,1,0
47,DPRoberts99,8,17,16,16,0,3,0,1,1,0
47,jackow80,7,18,16,16,0,3,0,1,1,0
47,DeHenne,8,17,16,16,0,3,0,1,1,0
47,Scuffle,12,16,16,16,0,3,0,1,1,0
47,Isildur,11,18,16,16,0,3,0,1,1,0
47,MyDogZeus,11,24,16,16,0,3,0,1,1,0
47,白乌鸦,12,20,16,16,0,3,0,1,1,0
47,Blank Never Loses,11,16,16,16,0,3,0,1,1,0
47,eddie murphy,7,22,16,16,0,3,0,1,1,0
47,Tony Larth,11,22,16,16,0,3,0,1,1,0
47,TREY,12,53,16,16,0,3,0,2,1,0
47,Resonator,12,16,16,16,0,3,0,1,1,0
47,V-Tep,7,17,17,16,0,3,0,1,1,0
47,colliseum,12,39,16,16,0,3,0,2,1,0
47,force_of_nature,12,19,16,16,0,3,0,1,1,0
47,iluvsheep,7,17,17,16,0,3,0,1,1,0
47,Ainokami,7,19,16,16,0,3,0,1,1,0
47,rare,11,16,16,16,0,3,0,1,1,0
47,[Psion] TheNachoSamurai,12,35,16,16,0,3,0,2,1,0
47,wic3x5,7,17,17,16,0,3,0,1,1,0
47,maulotov,12,16,16,16,0,3,0,1,1,0
47,Μᴇʟᴏɴ,8,16,16,16,0,3,0,1,1,0
47,blacksad,10,22,16,16,0,3,0,1,1,0
47,zlaxor,12,20,16,16,0,3,0,1,1,0
47,Fantomasek,12,34,16,16,0,3,0,2,1,0
47,⌀,7,30,17,16,0,3,0,2,1,0
47,Beacze,8,16,16,16,0,3,0,1,1,0
47,Bartuni,9,15,15,15,1,2,0,2,0,0
47,Shibanqk,10,33,15,15,1,2,0,3,0,0
47,1000rang,5,18,16,15,1,2,0,2,0,0
47,Yurecsuper,6,16,15,15,1,2,0,2,0,0
47,三日月,12,31,15,15,1,2,0,3,0,0
47,gerundio,9,15,15,15,1,2,0,2,0,0
47,[Psion] FoxCries,12,16,15,15,1,2,0,2,0,0
47,Manymany,6,32,15,15,1,2,0,3,0,0
47,magic1993,7,18,15,15,1,2,0,2,0,0
47,brown man,5,20,15,15,1,2,0,2,0,0
47,Easycake001,5,17,15,15,1,2,0,2,0,0
47,RavenGuard,12,15,15,15,1,2,0,2,0,0
47,DiegoFerreL,12,46,15,15,1,2,0,3,0,0
47,✜CryptoDoC✜,10,18,15,15,1,2,0,2,0,0
47,blockchainedpando,6,24,16,15,1,2,0,2,0,0
47,Stede,12,17,15,15,1,2,0,2,0,0
47,Thirdman,8,15,15,15,1,2,0,2,0,0
47,SpaceCoastKook,12,15,15,15,1,2,0,2,0,0
47,Makakka,8,16,15,15,1,2,0,2,0,0
47,Bumboklaat,8,15,15,15,1,2,0,2,0,0
47,Dimas_XT,7,15,15,15,1,2,0,2,0,0
47,Gladius Mortis,5,15,15,15,1,2,0,2,0,0
47,SniffOnMe,12,18,15,15,1,2,0,2,0,0
47,Nagibator777,11,15,15,15,1,2,0,2,0,0
47,Kagetora,5,21,19,15,1,2,0,2,0,0
47,PeakABoo,10,15,15,15,1,2,0,2,0,0
47,שלימזל,12,15,15,15,1,2,0,2,0,0
47,한국 호빗,11,21,15,15,1,2,0,2,0,0
47,sparky,10,34,15,15,1,2,0,3,0,0
47,HardRockMiner,8,15,15,15,1,2,0,2,0,0
47,Marginal,8,15,15,15,1,2,0,2,0,0
47,GUDecks.com,12,37,15,15,1,2,0,3,0,0
47,Wades.ETH,12,15,15,15,1,2,0,2,0,0
47,Lucifer,11,19,15,15,1,2,0,2,0,0
47,YetiDotETH,8,22,15,15,1,2,0,2,0,0
47,Gerisn,5,23,22,15,1,2,0,2,0,0
47,MrMousey,7,15,14,14,1,2,0,2,0,0
47,Woden,12,14,14,14,1,2,0,2,0,0
47,Nbecerril53o,5,14,14,14,1,2,0,2,0,0
47,Tiannizu,8,43,14,14,1,2,0,3,0,0
47,chacozum,6,23,14,14,1,2,0,2,0,0
47,ƉƉƉƉ,6,27,14,14,1,2,0,2,0,0
47,Zorian,11,14,14,14,1,2,0,2,0,0
47,Archangel1318,12,48,14,14,1,2,0,3,0,0
47,$,8,53,14,14,1,2,0,3,0,0
47,ghostrestaurantlab_inago,9,15,14,14,1,2,0,2,0,0
47,[IRIS]Yusakman,10,15,14,14,1,2,0,2,0,0
47,PooNaniHunter,7,15,14,14,1,2,0,2,0,0
47,Havoc Stormbearer,8,22,14,14,1,2,0,2,0,0
47,dedemon,8,16,14,14,1,2,0,2,0,0
47,mamont123,8,14,14,14,1,2,0,2,0,0
47,ø,12,21,14,14,1,2,0,2,0,0
47,n!ghtl!ght,11,16,14,14,1,2,0,2,0,0
47,KceoLine,9,14,14,14,1,2,0,2,0,0
47,Mice Elf,8,20,14,14,1,2,0,2,0,0
47,Noice,8,38,14,14,1,2,0,3,0,0
47,Slye,9,14,14,14,1,2,0,2,0,0
47,Godamnitleeroy,12,25,14,14,1,2,0,2,0,0
47,CopperPitch,12,30,14,14,1,2,0,3,0,0
47,reachy,7,25,14,14,1,2,0,2,0,0
47,Moonpig,10,14,14,14,1,2,0,2,0,0
47,[tst]themudman,12,14,14,14,1,2,0,2,0,0
47,ZEALOT,9,15,14,14,1,2,0,2,0,0
47,cmosc89,5,25,14,14,1,2,0,2,0,0
47,☺Mythic☺ Dragonstorm,12,34,14,14,1,2,0,3,0,0
47,FriendlySpy,10,15,14,14,1,2,0,2,0,0
47,Ota Benga,10,56,14,14,1,2,0,3,0,0
47,SHINZON,7,14,14,14,1,2,0,2,0,0
47,HeresYourTollTroll,9,46,14,14,1,2,0,3,0,0
47,Xiato,7,14,14,14,1,2,0,2,0,0
47,KLMJ,9,14,14,14,1,2,0,2,0,0
47,Gandalf,12,32,14,14,1,2,0,3,0,0
47,Returner,10,15,14,14,1,2,0,2,0,0
47,Elyon,12,14,14,14,1,2,0,2,0,0
47,#WhiteLivesMatterToo,8,25,14,14,1,2,0,2,0,0
47,swimlane72,9,21,14,14,1,2,0,2,0,0
47,Lysander,12,50,14,14,1,2,0,3,0,0
47,HaruhiSuzumiya,8,29,14,14,1,2,0,2,0,0
47,cryptoznewb,10,14,14,14,1,2,0,2,0,0
47,Canubis,10,16,14,14,1,2,0,2,0,0
47,NAGIBATOR,9,13,13,13,2,1,0,1,0,0
47,Djonbol1,7,18,13,13,2,1,0,1,0,0
47,Omegafenix,9,38,13,13,2,1,0,2,0,0
47,coinage,8,15,13,13,2,1,0,1,0,0
47,Diman007,8,15,13,13,2,1,0,1,0,0
47,DashingGman,6,13,13,13,2,1,0,1,0,0
47,Dr. A. Cula,1,15,15,13,2,1,0,1,0,0
47,[Mythic] Unchained,12,13,13,13,2,1,0,1,0,0
47,Wintermute,1,15,15,13,2,1,0,1,0,0
47,goldemon,9,13,13,13,2,1,0,1,0,0
47,Arkeny Armageddon,3,17,17,13,2,1,0,1,0,0
47,dalahad,8,13,13,13,2,1,0,1,0,0
47,Syonidehyde1165,4,29,17,13,2,1,0,1,0,0
47,WhiteWhale,7,31,13,13,2,1,0,2,0,0
47,☺,8,43,13,13,2,1,0,2,0,0
47,_fireartist,8,14,13,13,2,1,0,1,0,0
47,Cedric008,8,13,13,13,2,1,0,1,0,0
47,Hedeslag,1,26,16,13,2,1,0,1,0,0
47,~XYuGuX~,1,41,19,13,2,1,0,2,0,0
47,Starry Ninja,3,26,18,13,2,1,0,1,0,0
47,blockchaingames.fun,9,13,13,13,2,1,0,1,0,0
47,antimpit,1,16,14,13,2,1,0,1,0,0
47,DeathLine,5,13,13,13,2,1,0,1,0,0
47,AlienWeapon,8,13,13,13,2,1,0,1,0,0
47,CapuletKiller,1,13,13,13,2,1,0,1,0,0
47,POOKIDS420,8,13,13,13,2,1,0,1,0,0
47,Yogalholic,7,16,13,13,2,1,0,1,0,0
47,hollajack,1,14,14,13,2,1,0,1,0,0
47,MustangKirby,7,29,13,13,2,1,0,1,0,0
47,situuu30,1,68,16,13,2,1,0,2,0,0
47,Cryanar,4,15,15,13,2,1,0,1,0,0
47,CH1P7,7,13,13,13,2,1,0,1,0,0
47,No Truth,1,17,13,13,2,1,0,1,0,0
47,ZENIMOON,8,32,13,13,2,1,0,2,0,0
47,agrimony,2,17,17,13,2,1,0,1,0,0
47,Damaged Gadget,10,13,13,13,2,1,0,1,0,0
47,little1985,11,13,13,13,2,1,0,1,0,0
47,Wicked Cheese,10,16,13,13,2,1,0,1,0,0
47,Danbog,7,13,13,13,2,1,0,1,0,0
47,sensebe,11,52,13,13,2,1,0,2,0,0
47,gohm,9,13,13,13,2,1,0,1,0,0
47,CastorPollux,1,35,18,13,2,1,0,2,0,0
47,Digitt,8,13,13,13,2,1,0,1,0,0
47,nima_501,1,16,16,13,2,1,0,1,0,0
47,PlinytheEther,11,30,13,13,2,1,0,2,0,0
47,neverytime,8,19,13,13,2,1,0,1,0,0
47,adremite,1,16,16,13,2,1,0,1,0,0
47,Sir Ike Moesha Broflovski,8,43,13,13,2,1,0,2,0,0
47,ElPatron,8,13,13,13,2,1,0,1,0,0
47,monStar,12,13,13,13,2,1,0,1,0,0
47,arisho,9,13,13,13,2,1,0,1,0,0
47,MarcheG,4,24,12,12,2,1,0,1,0,0
47,krashnovr,11,12,12,12,2,1,0,1,0,0
47,Manigoldo,5,13,12,12,2,1,0,1,0,0
47,Aeternity,8,12,12,12,2,1,0,1,0,0
47,sadisteck,11,12,12,12,2,1,0,1,0,0
47,averon00,1,12,12,12,2,1,0,1,0,0
47,Intergalactic,8,20,12,12,2,1,0,1,0,0
47,AMRLordCoins,8,15,12,12,2,1,0,1,0,0
47,Afronizer,8,30,12,12,2,1,0,2,0,0
47,Sir Tango,11,35,12,12,2,1,0,2,0,0
47,Enzo05,9,38,12,12,2,1,0,2,0,0
47,TerribleJIexa,10,25,12,12,2,1,0,1,0,0
47,[Mythic] Ducky,12,30,12,12,2,1,0,2,0,0
47,Zhiga,9,12,12,12,2,1,0,1,0,0
47,darknoj9,1,12,12,12,2,1,0,1,0,0
47,T.kusanagi,7,24,12,12,2,1,0,1,0,0
47,Unique.Esprit,11,15,12,12,2,1,0,1,0,0
47,Salernik,11,14,12,12,2,1,0,1,0,0
47,theboogyman,8,12,12,12,2,1,0,1,0,0
47,Helga999,7,12,12,12,2,1,0,1,0,0
47,paprikman,10,12,12,12,2,1,0,1,0,0
47,LegndRicky,10,12,12,12,2,1,0,1,0,0
47,a29654776,10,31,12,12,2,1,0,2,0,0
47,Mr_*M*E*A*T*,11,18,12,12,2,1,0,1,0,0
47,Chozami,10,14,12,12,2,1,0,1,0,0
47,Tru+hSe3ker,12,12,12,12,2,1,0,1,0,0
47,Dactar,10,12,12,12,2,1,0,1,0,0
47,stoeckro,10,12,12,12,2,1,0,1,0,0
47,destravous,9,17,12,12,2,1,0,1,0,0
47,Zorongo,5,16,12,12,2,1,0,1,0,0
47,QuinnBear,12,12,12,12,2,1,0,1,0,0
47,PaxMagnus,9,12,12,12,2,1,0,1,0,0
47,mike0182,9,49,12,12,2,1,0,2,0,0
47,BancoDeCrypto,5,19,12,12,2,1,0,1,0,0
47,trilldebeest,9,37,12,12,2,1,0,2,0,0
47,slivenec,7,12,12,12,2,1,0,1,0,0
47,RedDeath,10,12,12,12,2,1,0,1,0,0
47,Sergee25,6,23,12,12,2,1,0,1,0,0
47,roytutu,12,14,12,12,2,1,0,1,0,0
47,Dave,12,12,12,12,2,1,0,1,0,0
47,JP,8,12,12,12,2,1,0,1,0,0
47,TheHassy,12,17,12,12,2,1,0,1,0,0
47,GoRiLLaZoR,4,14,12,12,2,1,0,1,0,0
47,NIKITA_ORDER,1,11,11,11,2,1,0,1,0,0
47,Fiofan,9,12,11,11,2,1,0,1,0,0
47,Saint777,9,12,11,11,2,1,0,1,0,0
47,Yanicroft,6,11,11,11,2,1,0,1,0,0
47,AIDAN420,8,16,11,11,2,1,0,1,0,0
47,Nanich,7,16,11,11,2,1,0,1,0,0
47,Hypnotic,8,11,11,11,2,1,0,1,0,0
47,Kaibarash,6,11,11,11,2,1,0,1,0,0
47,Boh,9,18,11,11,2,1,0,1,0,0
47,[Twitch4Fun] Kaeserotor,12,11,11,11,2,1,0,1,0,0
47,rob31rob31,8,12,11,11,2,1,0,1,0,0
47,Glamlys,9,11,11,11,2,1,0,1,0,0
47,karlito636,7,11,11,11,2,1,0,1,0,0
47,VonMises,10,11,11,11,2,1,0,1,0,0
47,someonesomeone,12,13,11,11,2,1,0,1,0,0
47,---gbg---,1,11,11,11,2,1,0,1,0,0
47,thepuffin,6,14,11,11,2,1,0,1,0,0
47,Xboot,6,29,11,11,2,1,0,1,0,0
47,Androssi,12,11,11,11,2,1,0,1,0,0
47,kovanova,9,13,11,11,2,1,0,1,0,0
47,sevenjay,4,11,11,11,2,1,0,1,0,0
47,Kolesiff,11,11,11,11,2,1,0,1,0,0
47,Grijander,1,11,11,11,2,1,0,1,0,0
47,superman313,12,21,11,11,2,1,0,1,0,0
47,اکویٹا,12,12,11,11,2,1,0,1,0,0
47,emiliomorles,7,15,11,11,2,1,0,1,0,0
47,SonOfLilith,6,11,11,11,2,1,0,1,0,0
47,bs241111,7,31,11,11,2,1,0,2,0,0
47,blondin,5,36,11,11,2,1,0,2,0,0
47,MrCantSeeMe,1,11,11,11,2,1,0,1,0,0
47,-=|Greedy|=-,9,15,11,11,2,1,0,1,0,0
47,Lord of Crypto,8,11,11,11,2,1,0,1,0,0
47,oniru,7,11,11,11,2,1,0,1,0,0
47,Stoneward,8,12,11,11,2,1,0,1,0,0
47,bkositzke,10,11,11,11,2,1,0,1,0,0
47,AwesomeSparkly,8,13,11,11,2,1,0,1,0,0
47,pokerbjj,8,15,11,11,2,1,0,1,0,0
47,foggybottom,5,11,11,11,2,1,0,1,0,0
47,Tamerlan,7,11,11,11,2,1,0,1,0,0
47,Celeorian,1,17,11,11,2,1,0,1,0,0
47,Jimmer,12,11,11,11,2,1,0,1,0,0
47,BasVanSpanker,10,24,11,11,2,1,0,1,0,0
47,EtherKnight,7,12,10,10,3,0,0,0,0,0
47,alanwillis,6,10,10,10,3,0,0,0,0,0
47,TenTon01,9,14,10,10,3,0,0,0,0,0
47,GazzaMine,5,10,10,10,3,0,0,0,0,0
47,ŽŽŽ,10,34,10,10,3,0,0,1,0,0
47,dezilver,8,10,10,10,3,0,0,0,0,0
47,Waikikamukau,12,40,10,10,3,0,0,1,0,0
47,Oblongfitzoblong,11,16,10,10,3,0,0,0,0,0
47,cicada,9,49,10,10,3,0,0,1,0,0
47,MagicOwl,1,24,10,10,3,0,0,0,0,0
47,ranab998,6,10,10,10,3,0,0,0,0,0
47,ěĝĝƑơơƴơůňĝ,9,10,10,10,3,0,0,0,0,0
47,robotdeniro,7,11,10,10,3,0,0,0,0,0
47,Rvu_Vsem_Duplo,8,10,10,10,3,0,0,0,0,0
47,Galgorath333,9,11,10,10,3,0,0,0,0,0
47,t0w,8,10,10,10,3,0,0,0,0,0
47,CryptoJoueur,7,18,10,10,3,0,0,0,0,0
47,intacrypt,5,12,10,10,3,0,0,0,0,0
47,JM_Borg_,6,10,10,10,3,0,0,0,0,0
47,FD_Disaster,7,10,10,10,3,0,0,0,0,0
47,Demons,12,22,10,10,3,0,0,0,0,0
47,Herodot20,8,18,10,10,3,0,0,0,0,0
47,dobindubas,9,19,10,10,3,0,0,0,0,0
47,darkbluechain,10,15,10,10,3,0,0,0,0,0
47,doudou2201,10,17,10,10,3,0,0,0,0,0
47,SpicoliAndreti,6,12,10,10,3,0,0,0,0,0
47,angrygnat,7,15,10,10,3,0,0,0,0,0
47,OverM,12,31,10,10,3,0,0,1,0,0
47,ZAFARI,10,24,10,10,3,0,0,0,0,0
47,TheFireWithin,12,14,10,10,3,0,0,0,0,0
47,DrippSinatra,9,14,10,10,3,0,0,0,0,0
47,DonnyMacArth,5,41,10,10,3,0,0,1,0,0
47,quokku,10,10,10,10,3,0,0,0,0,0
47,Pidda1994,10,9,9,9,3,0,0,0,0,0
47,chilltown,7,9,9,9,3,0,0,0,0,0
47,DthRevan,11,9,9,9,3,0,0,0,0,0
47,EdOnCouch,12,33,9,9,3,0,0,1,0,0
47,0x7d31apuz,10,56,9,9,3,0,0,1,0,0
47,,10,9,9,9,3,0,0,0,0,0
47,Jahura_Banu,7,30,9,9,3,0,0,1,0,0
47,jcsc1989,8,9,9,9,3,0,0,0,0,0
47,UTP,7,16,9,9,3,0,0,0,0,0
47,BlackMagic,8,51,9,9,3,0,0,1,0,0
47,Chain0tater,6,51,9,9,3,0,0,1,0,0
47,sczi*987,6,9,9,9,3,0,0,0,0,0
47,Starskreem,6,9,9,9,3,0,0,0,0,0
47,grega1999,7,12,9,9,3,0,0,0,0,0
47,bacoor  hbwallet,7,9,9,9,3,0,0,0,0,0
47,Omen #MetaHash,10,9,9,9,3,0,0,0,0,0
47,Andantino,10,9,9,9,3,0,0,0,0,0
47,marukaziri,9,9,9,9,3,0,0,0,0,0
47,Anaxamander,8,12,9,9,3,0,0,0,0,0
47,ZACHISNICE,6,10,9,9,3,0,0,0,0,0
47,Xile1985,7,9,9,9,3,0,0,0,0,0
47,Ungulate-NCP,12,9,9,9,3,0,0,0,0,0
47,Odaja,8,9,9,9,3,0,0,0,0,0
47,Valhalla,8,9,9,9,3,0,0,0,0,0
47,ZhiBo,4,9,9,9,3,0,0,0,0,0
47,apix3222,6,23,9,9,3,0,0,0,0,0
47,Brathering,6,17,9,9,3,0,0,0,0,0
47,superslim,11,41,9,9,3,0,0,1,0,0
47,Lyburnum,4,13,9,9,3,0,0,0,0,0
47,DaoChemist,7,9,9,9,3,0,0,0,0,0
47,gothmaug,12,9,9,9,3,0,0,0,0,0
47,WildCard0341,8,9,9,9,3,0,0,0,0,0
47,trakzenator,7,10,9,9,3,0,0,0,0,0
47,Cerberus,6,16,9,9,3,0,0,0,0,0
47,☺,12,30,9,9,3,0,0,1,0,0
47,Snow1337,5,9,9,9,3,0,0,0,0,0
47,Berezovysok,7,10,9,9,3,0,0,0,0,0
47,ferzspb,10,9,9,9,3,0,0,0,0,0
47,Jinimage,6,16,9,9,3,0,0,0,0,0
47,huntercj1476,4,9,9,9,3,0,0,0,0,0
47,longdarth,11,9,9,9,3,0,0,0,0,0
47,Ninjaturtle,7,9,9,9,3,0,0,0,0,0
47,xxxCrypticMagexxx,3,8,8,8,3,0,0,0,0,0
47,Furolorrn,3,8,8,8,3,0,0,0,0,0
47,isaacfufu,10,8,8,8,3,0,0,0,0,0
47,mksc5513,1,8,8,8,3,0,0,0,0,0
47,fillvad14,5,8,8,8,3,0,0,0,0,0
47,restb777,8,8,8,8,3,0,0,0,0,0
47,GV,6,8,8,8,3,0,0,0,0,0
47,btz4u,8,8,8,8,3,0,0,0,0,0
47,Lokilamadupa,11,8,8,8,3,0,0,0,0,0
47,TheGreatFrog,4,15,8,8,3,0,0,0,0,0
47,Epcitite,1,8,8,8,3,0,0,0,0,0
47,Yaratsu,7,8,8,8,3,0,0,0,0,0
47,Guardian50,3,8,8,8,3,0,0,0,0,0
47,verbalshadow,10,14,8,8,3,0,0,0,0,0
47,densdensdens,9,8,8,8,3,0,0,0,0,0
47,sigfriedCrypto,12,8,8,8,3,0,0,0,0,0
47,freaky44,6,8,8,8,3,0,0,0,0,0
47,三十九,12,8,8,8,3,0,0,0,0,0
47,Xpwao,6,8,8,8,3,0,0,0,0,0
47,Konohime,8,19,8,8,3,0,0,0,0,0
47,Cryptolemon,11,8,8,8,3,0,0,0,0,0
47,HYBRIDPWN,2,8,8,8,3,0,0,0,0,0
47,SpaceCat,9,8,8,8,3,0,0,0,0,0
47,Excidium,10,8,8,8,3,0,0,0,0,0
47,obama,9,8,8,8,3,0,0,0,0,0
47,Noshlarr,10,8,8,8,3,0,0,0,0,0
47,jnew00,7,8,8,8,3,0,0,0,0,0
47,Drummerboyj,11,8,8,8,3,0,0,0,0,0
47,Indoorsportshall,1,8,8,8,3,0,0,0,0,0
47,nickyshines,7,8,8,8,3,0,0,0,0,0
47,strange,7,10,8,8,3,0,0,0,0,0
47,AnusMundi,7,8,8,8,3,0,0,0,0,0
47,!Ярый Ярл!,8,10,8,8,3,0,0,0,0,0
47,PrinceH,8,8,8,8,3,0,0,0,0,0
47,Slippy P,6,11,8,8,3,0,0,0,0,0
47,Star_Boy,6,8,8,8,3,0,0,0,0,0
47,masanari,7,7,7,7,2,0,0,0,0,0
47,Loenatik,1,7,7,7,2,0,0,0,0,0
47,tlatoani,8,7,7,7,2,0,0,0,0,0
47,PCoq,9,7,7,7,2,0,0,0,0,0
47,Roberto23,6,9,7,7,2,0,0,0,0,0
47,ﺴﺶﻈ,11,7,7,7,2,0,0,0,0,0
47,cryptokcmo,4,7,7,7,2,0,0,0,0,0
47,DeusEM,8,7,7,7,2,0,0,0,0,0
47,Overlordtrial,4,7,7,7,2,0,0,0,0,0
47,.XXOTCXX.,6,32,7,7,2,0,0,1,0,0
47,SonGokuBg,10,7,7,7,2,0,0,0,0,0
47,Utar Vicar of Pebbles,6,7,7,7,2,0,0,0,0,0
47,LetMeLive,12,7,7,7,2,0,0,0,0,0
47,Headsnap,7,7,7,7,2,0,0,0,0,0
47,Montrix,8,7,7,7,2,0,0,0,0,0
47,davirozz,8,7,7,7,2,0,0,0,0,0
47,Ragnor8476,7,7,7,7,2,0,0,0,0,0
47,のんちゃん,12,7,7,7,2,0,0,0,0,0
47,CorpGravius,11,7,7,7,2,0,0,0,0,0
47,&,9,7,7,7,2,0,0,0,0,0
47,handicapable,1,7,7,7,2,0,0,0,0,0
47,bushido,5,7,7,7,2,0,0,0,0,0
47,Strikeroff,8,7,7,7,2,0,0,0,0,0
47,Hastal Havista,7,7,7,7,2,0,0,0,0,0
47,kingdavid,8,7,7,7,2,0,0,0,0,0
47,Ptothehyphen,9,7,7,7,2,0,0,0,0,0
47,Y8Z,9,7,7,7,2,0,0,0,0,0
47,Babooshka,5,21,7,7,2,0,0,0,0,0
47,MasterMoney22835,3,7,7,7,2,0,0,0,0,0
47,Mother_Nature,3,7,7,7,2,0,0,0,0,0
47,M.o.D,5,24,7,7,2,0,0,0,0,0
47,trent_reznor,9,8,7,7,2,0,0,0,0,0
47,Treborsawi,9,7,7,7,2,0,0,0,0,0
47,Randalinsky,8,7,7,7,2,0,0,0,0,0
47,huntrhatch,5,13,7,7,2,0,0,0,0,0
47,ulcus,9,6,6,6,2,0,0,0,0,0
47,MuffinMonkey,9,6,6,6,2,0,0,0,0,0
47,ThotHtheAtlanteaN,8,6,6,6,2,0,0,0,0,0
47,spassbol,8,6,6,6,2,0,0,0,0,0
47,blakyeltoro,5,6,6,6,2,0,0,0,0,0
47,Santana,6,6,6,6,2,0,0,0,0,0
47,Feradac,3,6,6,6,2,0,0,0,0,0
47,onlys,5,6,6,6,2,0,0,0,0,0
47,hERoIC15397,12,6,6,6,2,0,0,0,0,0
47,Tommy2Guns,7,6,6,6,2,0,0,0,0,0
47,kentsutse,5,6,6,6,2,0,0,0,0,0
47,Grimmcrypter,5,6,6,6,2,0,0,0,0,0
47,Deil713009,5,10,6,6,2,0,0,0,0,0
47,Odin,11,6,6,6,2,0,0,0,0,0
47,Storm Toad,6,6,6,6,2,0,0,0,0,0
47,Kietelaar,8,6,6,6,2,0,0,0,0,0
47,Krilanz93,9,6,6,6,2,0,0,0,0,0
47,Finaldoom,9,10,6,6,2,0,0,0,0,0
47,KhanVovan,6,6,6,6,2,0,0,0,0,0
47,TooEasy,11,6,6,6,2,0,0,0,0,0
47,Monstr72,1,13,6,6,2,0,0,0,0,0
47,ProAndyKiller,10,6,6,6,2,0,0,0,0,0
47,eMeS,9,6,6,6,2,0,0,0,0,0
47,Tafut Aga,7,6,6,6,2,0,0,0,0,0
47,SweetGuildOfMine,1,6,6,6,2,0,0,0,0,0
47,TheUnknown,7,6,6,6,2,0,0,0,0,0
47,Savant.Specter,11,6,6,6,2,0,0,0,0,0
47,CuCu99,7,6,6,6,2,0,0,0,0,0
47,alastor,9,6,6,6,2,0,0,0,0,0
47,coSMIX,7,6,6,6,2,0,0,0,0,0
47,tactics1,8,6,6,6,2,0,0,0,0,0
47,teawaterwire,7,6,6,6,2,0,0,0,0,0
47,Pohm7308,1,6,6,6,2,0,0,0,0,0
47,SheNut,6,19,6,6,2,0,0,0,0,0
47,Jigahurtz,1,6,6,6,2,0,0,0,0,0
47,justinj0305,7,5,5,5,2,0,0,0,0,0
47,kigawakunto27,11,5,5,5,2,0,0,0,0,0
47,ronink77,5,5,5,5,2,0,0,0,0,0
47,Denker,11,5,5,5,2,0,0,0,0,0
47,bobcryptolover,7,5,5,5,2,0,0,0,0,0
47,cesarmorles,8,5,5,5,2,0,0,0,0,0
47,GabZzzz,6,5,5,5,2,0,0,0,0,0
47,emanresu,9,5,5,5,2,0,0,0,0,0
47,Cerne,12,5,5,5,2,0,0,0,0,0
47,crypto_bovine,5,5,5,5,2,0,0,0,0,0
47,Wpaladin,5,5,5,5,2,0,0,0,0,0
47,ThatCrooks,4,5,5,5,2,0,0,0,0,0
47,luc1fack,1,5,5,5,2,0,0,0,0,0
47,Videorekorder,1,5,5,5,2,0,0,0,0,0
47,Lnrich92,1,5,5,5,2,0,0,0,0,0
47,Whitefly00,2,5,5,5,2,0,0,0,0,0
47,plaakkon,9,5,5,5,2,0,0,0,0,0
47,Pyron,3,5,5,5,2,0,0,0,0,0
47,skabber,10,5,5,5,2,0,0,0,0,0
47,reterical,12,5,5,5,2,0,0,0,0,0
47,Edgecaser,8,5,5,5,2,0,0,0,0,0
47,Gongdol92,5,5,5,5,2,0,0,0,0,0
47,macbaren,6,5,5,5,2,0,0,0,0,0
47,Blackbird,4,5,5,5,2,0,0,0,0,0
47,facugaba04,6,5,5,5,2,0,0,0,0,0
47,tetezinha,6,5,5,5,2,0,0,0,0,0
47,Jaysonparm,1,5,5,5,2,0,0,0,0,0
47,tstone2077,2,5,5,5,2,0,0,0,0,0
47,0xTailSoup,9,5,5,5,2,0,0,0,0,0
47,Azazell,7,5,5,5,2,0,0,0,0,0
47,Acecompac,6,5,5,5,2,0,0,0,0,0
47,WeirderChimp,6,5,5,5,2,0,0,0,0,0
47,adal111,8,5,5,5,2,0,0,0,0,0
47,bang39,9,5,5,5,2,0,0,0,0,0
47,Shinjiz,7,5,5,5,2,0,0,0,0,0
47,bouncetree,8,5,5,5,2,0,0,0,0,0
47,SteelRat,10,5,5,5,2,0,0,0,0,0
47,Runglish,2,5,5,5,2,0,0,0,0,0
47,Lotto,8,4,4,4,1,0,0,0,0,0
47,NoT TodaY,9,4,4,4,1,0,0,0,0,0
47,Wilderness,12,4,4,4,1,0,0,0,0,0
47,Endo,4,4,4,4,1,0,0,0,0,0
47,Cruyff14,8,4,4,4,1,0,0,0,0,0
47,ancestralrecall,12,4,4,4,1,0,0,0,0,0
47,nihao888,10,4,4,4,1,0,0,0,0,0
47,Bozie,5,4,4,4,1,0,0,0,0,0
47,ScroopyNoopers,5,4,4,4,1,0,0,0,0,0
47,gu.cards,9,4,4,4,1,0,0,0,0,0
47,Sadness,4,4,4,4,1,0,0,0,0,0
47,Eliminator,4,4,4,4,1,0,0,0,0,0
47,pungaeduart,1,4,4,4,1,0,0,0,0,0
47,the_spic,4,4,4,4,1,0,0,0,0,0
47,Overmaster,1,4,4,4,1,0,0,0,0,0
47,henningju,8,4,4,4,1,0,0,0,0,0
47,-ONETOC-,3,4,4,4,1,0,0,0,0,0
47,TradingSocks,7,5,4,4,1,0,0,0,0,0
47,alkibios,1,4,4,4,1,0,0,0,0,0
47,gou,12,4,4,4,1,0,0,0,0,0
47,PeriodBloodMouthWash,8,4,4,4,1,0,0,0,0,0
47,heroldius,2,4,4,4,1,0,0,0,0,0
47,Cre47iv3,6,4,4,4,1,0,0,0,0,0
47,OGGamerTag,9,4,4,4,1,0,0,0,0,0
47,saphst4r,10,4,4,4,1,0,0,0,0,0
47,hiroppy,9,4,4,4,1,0,0,0,0,0
47,Varick,9,4,4,4,1,0,0,0,0,0
47,yo.achim,6,4,4,4,1,0,0,0,0,0
47,1max112,4,4,4,4,1,0,0,0,0,0
47,Bogzbogz,3,4,4,4,1,0,0,0,0,0
47,Puppit6070,1,4,4,4,1,0,0,0,0,0
47,Cindy,8,4,4,4,1,0,0,0,0,0
47,Krumpy Lumpkins,12,4,4,4,1,0,0,0,0,0
47,ghostofmerln,8,4,4,4,1,0,0,0,0,0
47,Marija1120,1,4,4,4,1,0,0,0,0,0
47,GuzmaPhD,1,4,4,4,1,0,0,0,0,0
47,juliusnakamoto,6,15,4,4,1,0,0,0,0,0
47,Cananopie,9,4,4,4,1,0,0,0,0,0
47,LordGonc,1,4,4,4,1,0,0,0,0,0
47,Bitcoin,12,4,4,4,1,0,0,0,0,0
47,AdventureStory,8,4,4,4,1,0,0,0,0,0
47,Meditate_More,5,4,4,4,1,0,0,0,0,0
47,Yate,1,4,4,4,1,0,0,0,0,0
47,Kontratari,6,4,4,4,1,0,0,0,0,0
47,Rugdealer,5,4,4,4,1,0,0,0,0,0
47,gecheverria86,7,4,4,4,1,0,0,0,0,0
47,Rievserg,7,4,4,4,1,0,0,0,0,0
47,Xylo Spongium,5,4,4,4,1,0,0,0,0,0
47,Starvin,11,4,4,4,1,0,0,0,0,0
47,ezimedia,6,4,4,4,1,0,0,0,0,0
47,AddaxHD,8,4,4,4,1,0,0,0,0,0
47,Q,9,4,4,4,1,0,0,0,0,0
47,Blockfisher,7,4,4,4,1,0,0,0,0,0
47,HungLikeHippo,7,3,3,3,1,0,0,0,0,0
47,Wasyyyyt,3,3,3,3,1,0,0,0,0,0
47,Nyktimené,7,3,3,3,1,0,0,0,0,0
47,Otecotecqq,5,3,3,3,1,0,0,0,0,0
47,cambocleve,12,3,3,3,1,0,0,0,0,0
47,futuremars051,7,3,3,3,1,0,0,0,0,0
47,お金猫,12,3,3,3,1,0,0,0,0,0
47,Doppelbock,7,3,3,3,1,0,0,0,0,0
47,stachu,8,3,3,3,1,0,0,0,0,0
47,ProtegeAA,6,3,3,3,1,0,0,0,0,0
47,Punch McFists,7,3,3,3,1,0,0,0,0,0
47,Sokasakos,1,3,3,3,1,0,0,0,0,0
47,vicbergui,1,3,3,3,1,0,0,0,0,0
47,magiclazer,1,3,3,3,1,0,0,0,0,0
47,arashi9x,2,3,3,3,1,0,0,0,0,0
47,BatemanVIE,6,3,3,3,1,0,0,0,0,0
47,TORGOVIY MARKET,5,3,3,3,1,0,0,0,0,0
47,nan,5,3,3,3,1,0,0,0,0,0
47,Moneybags,10,3,3,3,1,0,0,0,0,0
47,sargecasey,10,3,3,3,1,0,0,0,0,0
47,MaxMatheus,8,3,3,3,1,0,0,0,0,0
47,Flohh82,4,3,3,3,1,0,0,0,0,0
47,xcoil,10,3,3,3,1,0,0,0,0,0
47,BlocksUnchained,10,3,3,3,1,0,0,0,0,0
47,Swen 122,8,3,3,3,1,0,0,0,0,0
47,F1rst,11,3,3,3,1,0,0,0,0,0
47,WilliamLee,9,3,3,3,1,0,0,0,0,0
47,ngeunit1,9,3,3,3,1,0,0,0,0,0
47,carebear,12,3,3,3,1,0,0,0,0,0
47,Little Straw Magician,7,3,3,3,1,0,0,0,0,0
47,cheeseburger,7,3,3,3,1,0,0,0,0,0
47,xanndex,11,3,3,3,1,0,0,0,0,0
47,shadowstrike42,7,3,3,3,1,0,0,0,0,0
47,ra,8,3,3,3,1,0,0,0,0,0
47,CardShop,10,3,3,3,1,0,0,0,0,0
47,Bayou-Bengal,7,3,3,3,1,0,0,0,0,0
47,SatChitAnanda,5,3,3,3,1,0,0,0,0,0
47,bit_stan,12,3,3,3,1,0,0,0,0,0
47,jellyroll,6,3,3,3,1,0,0,0,0,0
47,Dancing_shep,9,3,3,3,1,0,0,0,0,0
47,Goder,5,3,3,3,1,0,0,0,0,0
47,CelestialWarrior,1,9,3,3,1,0,0,0,0,0
47,Wanderer,5,3,3,3,1,0,0,0,0,0
47,FSadinoX,4,3,3,3,1,0,0,0,0,0
47,Des Petrovich,9,3,3,3,1,0,0,0,0,0
47,Oshay,10,2,2,2,0,0,0,0,0,0
47,maelstrom4880,7,2,2,2,0,0,0,0,0,0
47,haneabelow,4,2,2,2,0,0,0,0,0,0
47,Gypo,6,2,2,2,0,0,0,0,0,0
47,dm,4,2,2,2,0,0,0,0,0,0
47,mmax,9,2,2,2,0,0,0,0,0,0
47,shadowstep33,7,2,2,2,0,0,0,0,0,0
47,maragigayan,9,2,2,2,0,0,0,0,0,0
47,Pwned_By_A_Girl,8,2,2,2,0,0,0,0,0,0
47,CryptoJesse,7,2,2,2,0,0,0,0,0,0
47,Ramzeez,6,2,2,2,0,0,0,0,0,0
47,Roflmywaffle,6,2,2,2,0,0,0,0,0,0
47,Devram42,1,2,2,2,0,0,0,0,0,0
47,Gabriel,10,2,2,2,0,0,0,0,0,0
47,Tribone,7,2,2,2,0,0,0,0,0,0
47,Kolledaboss,8,2,2,2,0,0,0,0,0,0
47,galdames2,9,2,2,2,0,0,0,0,0,0
47,Naio,7,2,2,2,0,0,0,0,0,0
47,PuzzleMazl,9,2,2,2,0,0,0,0,0,0
47,Bat Soup,1,2,2,2,0,0,0,0,0,0
47,Hm47goat,5,2,2,2,0,0,0,0,0,0
47,Biggz0522,7,2,2,2,0,0,0,0,0,0
47,reddybear,12,2,2,2,0,0,0,0,0,0
47,doppiabeo,6,2,2,2,0,0,0,0,0,0
47,artMartialMyx,8,2,2,2,0,0,0,0,0,0
47,iflion,7,2,2,2,0,0,0,0,0,0
47,Mortal,6,2,2,2,0,0,0,0,0,0
47,miojo_esperto,12,2,2,2,0,0,0,0,0,0
47,BallNChained,8,2,2,2,0,0,0,0,0,0
47,_Allack_,6,2,2,2,0,0,0,0,0,0
47,Aragon,12,2,2,2,0,0,0,0,0,0
47,skankhunt42,8,2,2,2,0,0,0,0,0,0
47,Yell,7,2,2,2,0,0,0,0,0,0
47,tengchiang,9,2,2,2,0,0,0,0,0,0
47,Ms. Tanith,5,2,2,2,0,0,0,0,0,0
47,ill_coin,6,2,2,2,0,0,0,0,0,0
47,VladTheGod,4,2,2,2,0,0,0,0,0,0
47,_Legilia_,1,2,2,2,0,0,0,0,0,0
47,Elvenoracle,6,2,2,2,0,0,0,0,0,0
47,jimTurbo,9,2,2,2,0,0,0,0,0,0
47,Viktor87,1,2,2,2,0,0,0,0,0,0
47,Snaggles,1,2,2,2,0,0,0,0,0,0
47,7figurecrypto.com,7,2,2,2,0,0,0,0,0,0
47,Totemsh,8,2,2,2,0,0,0,0,0,0
47,DoolbDeathwave,1,2,2,2,0,0,0,0,0,0
47,julien,6,2,2,2,0,0,0,0,0,0
47,くりくりぷとぷと,12,2,2,2,0,0,0,0,0,0
47,Ultra-Ice,4,2,2,2,0,0,0,0,0,0
47,Kappacino,9,2,2,2,0,0,0,0,0,0
47,Ayo,12,2,2,2,0,0,0,0,0,0
47,Hazy1uk2020,5,2,2,2,0,0,0,0,0,0
47,Yostari,11,2,2,2,0,0,0,0,0,0
47,Y°dªfe††,11,2,2,2,0,0,0,0,0,0
47,mayablock,8,2,2,2,0,0,0,0,0,0
47,bumblewy,1,2,2,2,0,0,0,0,0,0
47,soumian1,4,2,2,2,0,0,0,0,0,0
47,VIZI,8,2,2,2,0,0,0,0,0,0
47,Justinkase,9,2,2,2,0,0,0,0,0,0
47,-=ÐDrîve~ßyE€=-,5,2,2,2,0,0,0,0,0,0
47,CaptainMurika,6,2,2,2,0,0,0,0,0,0
47,BlissFul,1,2,2,2,0,0,0,0,0,0
47,BL4NKE7,8,2,2,2,0,0,0,0,0,0
47,[tst]bonkthatbutt,12,2,2,2,0,0,0,0,0,0
47,MylteMilioner,3,2,2,2,0,0,0,0,0,0
47,luishmtz,1,2,2,2,0,0,0,0,0,0
47,crusty jane,6,2,2,2,0,0,0,0,0,0
47,RoadRunner42,5,2,2,2,0,0,0,0,0,0
47,USP12345,8,2,2,2,0,0,0,0,0,0
47,Master_Elliott,4,2,2,2,0,0,0,0,0,0
47,Riddlept,9,1,1,1,0,0,0,0,0,0
47,drchronic01,9,1,1,1,0,0,0,0,0,0
47,mundobitcoin,1,1,1,1,0,0,0,0,0,0
47,El Dios Desencadenado,8,1,1,1,0,0,0,0,0,0
47,ReportMe,8,1,1,1,0,0,0,0,0,0
47,QuantumTarantino,6,1,1,1,0,0,0,0,0,0
47,ErikFisher,4,1,1,1,0,0,0,0,0,0
47,Isildur1,8,1,1,1,0,0,0,0,0,0
47,NatsuruSen0,1,1,1,1,0,0,0,0,0,0
47,rRestless,4,1,1,1,0,0,0,0,0,0
47,KENNETHHO321,6,1,1,1,0,0,0,0,0,0
47,p_blezee,7,1,1,1,0,0,0,0,0,0
47,Dragonlord626,7,1,1,1,0,0,0,0,0,0
47,zur_rama111,6,1,1,1,0,0,0,0,0,0
47,Ytregah619,3,1,1,1,0,0,0,0,0,0
47,HypnoGremlin,5,1,1,1,0,0,0,0,0,0
47,AzureDVBB,7,1,1,1,0,0,0,0,0,0
47,DRdatamosh,1,1,1,1,0,0,0,0,0,0
47,Stepuptotheplate2,5,1,1,1,0,0,0,0,0,0
47,Maxz,9,1,1,1,0,0,0,0,0,0
47,lotuscore,1,1,1,1,0,0,0,0,0,0
47,Trollmann,11,1,1,1,0,0,0,0,0,0
47,Rubyinfushrite,1,1,1,1,0,0,0,0,0,0
47,Olymp,8,1,1,1,0,0,0,0,0,0
47,Njoiyt,4,1,1,1,0,0,0,0,0,0
47,Fatalist242,4,1,1,1,0,0,0,0,0,0
47,helanhalvan,1,1,1,1,0,0,0,0,0,0
47,RexTo,5,1,1,1,0,0,0,0,0,0
47,fice,10,1,1,1,0,0,0,0,0,0
47,Yompster,9,1,1,1,0,0,0,0,0,0
47,Lezuziusz,12,1,1,1,0,0,0,0,0,0
47,DisgustingHuman,9,1,1,1,0,0,0,0,0,0
47,Sir Shakerton,8,1,1,1,0,0,0,0,0,0
47,Iceras81,1,1,1,1,0,0,0,0,0,0
47,Snottysnake,10,1,1,1,0,0,0,0,0,0
47,orestese,1,1,1,1,0,0,0,0,0,0
47,Claume1125,5,1,1,1,0,0,0,0,0,0
47,Грумвол,12,1,1,1,0,0,0,0,0,0
47,frozenjoker,1,1,1,1,0,0,0,0,0,0
47,£,10,1,1,1,0,0,0,0,0,0
47,vadim1105,8,1,1,1,0,0,0,0,0,0
47,PerfectV,12,1,1,1,0,0,0,0,0,0
47,mrcalhou,3,1,1,1,0,0,0,0,0,0
47,Bermand2.0,9,1,1,1,0,0,0,0,0,0
47,matt690,7,1,1,1,0,0,0,0,0,0
47,bwindi,7,1,1,1,0,0,0,0,0,0
47,cuisine666,1,1,1,1,0,0,0,0,0,0
47,Chompetto,8,1,1,1,0,0,0,0,0,0
47,ShkafKupe,8,1,1,1,0,0,0,0,0,0
47,Cryptotastic,12,1,1,1,0,0,0,0,0,0
47,Roni,1,1,1,1,0,0,0,0,0,0
47,Staff Phyre,4,1,1,1,0,0,0,0,0,0
47,SneezyDwarf,8,1,1,1,0,0,0,0,0,0
47,Lucky7,4,1,1,1,0,0,0,0,0,0
47,TumbiBlake,1,1,1,1,0,0,0,0,0,0
47,maovader888,6,1,1,1,0,0,0,0,0,0
47,prishepofff,6,1,1,1,0,0,0,0,0,0
47,Bakdaulet,1,1,1,1,0,0,0,0,0,0
47,karabas666,9,1,1,1,0,0,0,0,0,0
47,Axoneq,2,1,1,1,0,0,0,0,0,0
47,ukelelelover,8,1,1,1,0,0,0,0,0,0
47,H1c0,2,1,1,1,0,0,0,0,0,0
47,Girthymanblade,1,1,1,1,0,0,0,0,0,0
47,Lanari,2,1,1,1,0,0,0,0,0,0
47,concordman,4,1,1,1,0,0,0,0,0,0
47,PeterD,8,1,1,1,0,0,0,0,0,0
47,liuke96player,12,1,1,1,0,0,0,0,0,0
47,furryballs,9,1,1,1,0,0,0,0,0,0
47,Hungrycoyote,1,1,1,1,0,0,0,0,0,0
47,Michellie420,3,1,1,1,0,0,0,0,0,0
47,andreaskanel,7,1,1,1,0,0,0,0,0,0
47,salTorIousSIG,2,1,1,1,0,0,0,0,0,0
47,Kenzo_01k,4,1,1,1,0,0,0,0,0,0
47,cehu,8,1,1,1,0,0,0,0,0,0
47,GrafDrac,1,1,1,1,0,0,0,0,0,0
47,cblood152,1,1,1,1,0,0,0,0,0,0
47,IWaTaRA,7,1,1,1,0,0,0,0,0,0
47,BuidloBagins,10,1,1,1,0,0,0,0,0,0
47,nuclearmonk,9,1,1,1,0,0,0,0,0,0
47,Anthrose,5,1,1,1,0,0,0,0,0,0
47,Akiro,6,1,1,1,0,0,0,0,0,0
47,MORIQUEN,6,1,1,1,0,0,0,0,0,0
47,Zzodiacz,10,1,1,1,0,0,0,0,0,0
47,Dasrauscht,5,1,1,1,0,0,0,0,0,0
47,catello78,7,1,1,1,0,0,0,0,0,0
47,MasterMirror,8,1,1,1,0,0,0,0,0,0
47,Bobmynobster,5,1,1,1,0,0,0,0,0,0
47,Adamer72,6,1,1,1,0,0,0,0,0,0
47,Cryptotica,1,1,1,1,0,0,0,0,0,0
47,Dark_mango,5,1,1,1,0,0,0,0,0,0
47,MadMax,10,1,1,1,0,0,0,0,0,0
47,fullerideas,5,1,1,1,0,0,0,0,0,0
47,⅋,4,1,1,1,0,0,0,0,0,0
47,radi,12,1,1,1,0,0,0,0,0,0
47,Peiniger,1,1,1,1,0,0,0,0,0,0
47,BobFaceASDF,1,1,1,1,0,0,0,0,0,0
47,fuck_all,8,1,1,1,0,0,0,0,0,0
47,edisonvargas,1,1,1,1,0,0,0,0,0,0
47,1337_7um8l3r,8,1,1,1,0,0,0,0,0,0
47,Mlexon,6,1,1,1,0,0,0,0,0,0
47,Consol33,7,1,1,1,0,0,0,0,0,0
47,athlee,9,1,1,1,0,0,0,0,0,0
47,deadrxse,4,1,1,1,0,0,0,0,0,0
47,Jybrael87,5,1,1,1,0,0,0,0,0,0
47,Blain,4,1,1,1,0,0,0,0,0,0
47,Wushi,5,1,1,1,0,0,0,0,0,0
47,Ayrtemis,3,1,1,1,0,0,0,0,0,0
47,shadowkill{599],4,1,1,1,0,0,0,0,0,0
47,moon,7,1,1,1,0,0,0,0,0,0
47,Apexlion,7,1,1,1,0,0,0,0,0,0
47,shock,10,1,1,1,0,0,0,0,0,0
47,psyhadel,8,1,1,1,0,0,0,0,0,0
47,Capta1nhowdy,5,1,1,1,0,0,0,0,0,0
47,dr-nuker,7,1,1,1,0,0,0,0,0,0
47,Savagem1k3y,1,1,1,1,0,0,0,0,0,0
47,GUUNEREEN,7,1,1,1,0,0,0,0,0,0
47,Amzinglyrwarded,4,1,1,1,0,0,0,0,0,0
47,Tdr46,5,1,1,1,0,0,0,0,0,0
47,AnonCat,7,1,1,1,0,0,0,0,0,0
47,Bitsavage,7,1,1,1,0,0,0,0,0,0
48,Charles Utkins,12,31,23,23,0,0,3,2,0,2
48,Cerne,11,23,23,23,0,0,3,1,0,2
48,三日月,12,30,21,21,0,0,2,1,2,1
48,EatTheRich,11,32,21,21,0,0,2,1,2,1
48,☺Mythic☺ Dragonstorm,12,20,20,20,0,1,1,1,1,1
48,r3hab,12,30,20,20,0,1,1,2,1,1
48,LCHammer,11,20,20,20,0,1,1,1,1,1
48,UnjustOne,12,38,19,19,0,2,1,1,2,0
48,DiegoFerreL,12,46,19,19,0,2,1,1,2,0
48,GUDecks.com,12,38,19,19,0,2,1,1,2,0
48,kigawakunto27,11,21,19,19,0,2,1,0,2,0
48,Грумвол,11,19,19,19,0,2,1,0,2,0
48,Nagibator777,10,31,20,19,0,2,1,1,2,0
48,quantumgamble,10,45,19,19,0,2,1,1,2,0
48,Waikikamukau,10,30,21,19,0,2,1,1,2,0
48,TREY,12,42,18,18,0,3,0,1,2,0
48,Ckastigador,12,30,18,18,0,3,0,1,2,0
48,[Mythic] revan,12,30,18,18,0,3,0,1,2,0
48,RavenGuard,12,20,18,18,0,3,0,0,2,0
48,Nonchan,12,41,18,18,0,3,0,1,2,0
48,Ἄρης,12,18,18,18,0,3,0,0,2,0
48,nan,12,30,18,18,0,3,0,1,2,0
48,🦁,10,18,18,18,0,3,0,0,2,0
48,BasVanSpanker,10,22,18,18,0,3,0,0,2,0
48,²³,9,19,19,18,0,3,0,0,2,0
48,读写汉字 - 学中文,9,19,19,18,0,3,0,0,2,0
48,[Twitch4Fun] Kaeserotor,9,37,18,18,0,3,0,1,2,0
48,mamont123,9,24,18,18,0,3,0,0,2,0
48,USP12345,9,19,19,18,0,3,0,0,2,0
48,Wezz,12,33,17,17,1,2,0,1,2,0
48,Resonator,12,17,17,17,1,2,0,0,2,0
48,V-Hirvi,12,17,17,17,1,2,0,0,2,0
48,[tst]themudman,12,39,17,17,1,2,0,1,2,0
48,Krumpy Lumpkins,12,31,17,17,1,2,0,1,2,0
48,[Pulse] Aldoc ♥♫,12,17,17,17,1,2,0,0,2,0
48,Archangel1318,12,46,17,17,1,2,0,1,2,0
48,noteboom,12,30,17,17,1,2,0,1,2,0
48,SolarMkd,12,18,17,17,1,2,0,0,2,0
48,[tst]cautionfun,12,30,17,17,1,2,0,1,2,0
48,[Mythic] VVH,12,17,17,17,1,2,0,0,2,0
48,monStar,12,17,17,17,1,2,0,0,2,0
48,自然,12,33,17,17,1,2,0,1,2,0
48,Savant.Specter,11,32,17,17,1,2,0,1,2,0
48,blacksad,10,30,17,17,1,2,0,1,2,0
48,cambocleve,9,18,17,17,1,2,0,0,2,0
48,Afronizer,9,32,17,17,1,2,0,1,2,0
48,Fiofan,8,34,17,17,1,2,0,1,2,0
48,Demolisher,8,18,18,17,1,2,0,0,2,0
48,mattyesq,8,17,17,17,1,2,0,0,2,0
48,اکویٹا,8,17,17,17,1,2,0,0,2,0
48,Boh,8,41,17,17,1,2,0,1,2,0
48,dalahad,8,18,18,17,1,2,0,0,2,0
48,(｡▼皿▼),8,39,18,17,1,2,0,1,2,0
48,☺,8,73,18,17,1,2,0,1,2,0
48,ProAndyKiller,8,18,18,17,1,2,0,0,2,0
48,rob31rob31,8,17,17,17,1,2,0,0,2,0
48,Galragg,8,18,18,17,1,2,0,0,2,0
48,ElPatron,8,30,18,17,1,2,0,1,2,0
48,Apollo,12,16,16,16,0,3,0,1,1,0
48,colliseum,12,27,16,16,0,3,0,1,1,0
48,The38th,12,30,16,16,0,3,0,2,1,0
48,radi,12,19,16,16,0,3,0,1,1,0
48,dallas_barr,12,16,16,16,0,3,0,1,1,0
48,☺,12,45,16,16,0,3,0,2,1,0
48,たこ,12,16,16,16,0,3,0,1,1,0
48,[Mythic] Ducky,12,31,16,16,0,3,0,2,1,0
48,zlaxor,12,16,16,16,0,3,0,1,1,0
48,SpaceCoastKook,12,23,16,16,0,3,0,1,1,0
48,Cryptolemon,11,18,16,16,0,3,0,1,1,0
48,ozimodan,11,16,16,16,0,3,0,1,1,0
48,cryptoznewb,11,18,16,16,0,3,0,1,1,0
48,Odin,10,16,16,16,0,3,0,1,1,0
48,CarnivalBigTop,10,27,16,16,0,3,0,1,1,0
48,Omen #MetaHash,10,37,16,16,0,3,0,2,1,0
48,Lucifer,10,23,16,16,0,3,0,1,1,0
48,Ares,9,32,16,16,0,3,0,2,1,0
48,武将,9,16,16,16,0,3,0,1,1,0
48,Diman007,8,20,16,16,0,3,0,1,1,0
48,restb777,8,22,16,16,0,3,0,1,1,0
48,Μᴇʟᴏɴ,8,16,16,16,0,3,0,1,1,0
48,Dimas_XT,7,16,16,16,0,3,0,1,1,0
48,ValBelair,7,30,17,16,0,3,0,2,1,0
48,MasterMirror,7,17,17,16,0,3,0,1,1,0
48,iluvsheep,7,16,16,16,0,3,0,1,1,0
48,☭,7,16,16,16,0,3,0,1,1,0
48,Starry Ninja,7,51,16,16,0,3,0,2,1,0
48,jcsc1989,7,19,16,16,0,3,0,1,1,0
48,HardRockMiner,7,16,16,16,0,3,0,1,1,0
48,DonnyMacArth,7,31,16,16,0,3,0,2,1,0
48,HaruhiSuzumiya,7,30,19,16,0,3,0,2,1,0
48,⌀,7,30,17,16,0,3,0,2,1,0
48,Akilsainon,12,31,15,15,1,2,0,3,0,0
48,[tst] Freedan,12,18,15,15,1,2,0,2,0,0
48,[Mythic] Unchained,12,15,15,15,1,2,0,2,0,0
48,魔junior,12,15,15,15,1,2,0,2,0,0
48,superman313,12,41,15,15,1,2,0,3,0,0
48,popovanton89,12,33,15,15,1,2,0,3,0,0
48,TheNachoSamurai,12,42,15,15,1,2,0,3,0,0
48,someonesomeone,12,15,15,15,1,2,0,2,0,0
48,ногоонзалуу,12,30,15,15,1,2,0,3,0,0
48,Lysander,12,21,15,15,1,2,0,2,0,0
48,Isildur,12,15,15,15,1,2,0,2,0,0
48,TheHassy,12,17,15,15,1,2,0,2,0,0
48,Moonpig,11,19,15,15,1,2,0,2,0,0
48,Shibanqk,11,30,15,15,1,2,0,3,0,0
48,Lokilamadupa,11,30,15,15,1,2,0,3,0,0
48,PlinytheEther,11,30,15,15,1,2,0,3,0,0
48,Ayo,11,17,15,15,1,2,0,2,0,0
48,Butterball6,11,15,15,15,1,2,0,2,0,0
48,Tru+hSe3ker,10,15,15,15,1,2,0,2,0,0
48,Jashby1997,10,21,15,15,1,2,0,2,0,0
48,bkositzke,10,16,15,15,1,2,0,2,0,0
48,a29654776,9,30,15,15,1,2,0,3,0,0
48,Manymany,9,30,15,15,1,2,0,3,0,0
48,verbalshadow,9,19,15,15,1,2,0,2,0,0
48,BlackMagic,9,25,15,15,1,2,0,2,0,0
48,coinage,8,15,15,15,1,2,0,2,0,0
48,ƉƉƉƉ,8,33,15,15,1,2,0,3,0,0
48,Havoc Stormbearer,8,16,15,15,1,2,0,2,0,0
48,Zappaboy,8,15,15,15,1,2,0,2,0,0
48,situuu30,8,30,15,15,1,2,0,3,0,0
48,theboogyman,8,17,15,15,1,2,0,2,0,0
48,Resplandor,8,95,15,15,1,2,0,3,0,0
48,HeresYourTollTroll,7,73,15,15,1,2,0,3,0,0
48,facugaba04,6,19,17,15,1,2,0,2,0,0
48,mahkoyu5143,6,16,16,15,1,2,0,2,0,0
48,Strikeroff,6,22,15,15,1,2,0,2,0,0
48,slivenec,6,15,15,15,1,2,0,2,0,0
48,oniru,5,23,18,15,1,2,0,2,0,0
48,foggybottom,5,16,16,15,1,2,0,2,0,0
48,robotdeniro,5,15,15,15,1,2,0,2,0,0
48,ancestralrecall,12,14,14,14,1,2,0,2,0,0
48,rl958,12,21,14,14,1,2,0,2,0,0
48,ザハード,12,14,14,14,1,2,0,2,0,0
48,Mirage88,12,47,14,14,1,2,0,3,0,0
48,Longy,12,19,14,14,1,2,0,2,0,0
48,キツネの叫び,12,14,14,14,1,2,0,2,0,0
48,LetMeLive,12,21,14,14,1,2,0,2,0,0
48,[tst]bonkthatbutt,12,14,14,14,1,2,0,2,0,0
48,Scuffle,12,14,14,14,1,2,0,2,0,0
48,Fantomasek,12,22,14,14,1,2,0,2,0,0
48,force_of_nature,11,14,14,14,1,2,0,2,0,0
48,[Pulse] v2,11,15,14,14,1,2,0,2,0,0
48,Oblongfitzoblong,11,16,14,14,1,2,0,2,0,0
48,PleaseDontRopeMe,11,31,14,14,1,2,0,3,0,0
48,TheFireWithin,11,15,14,14,1,2,0,2,0,0
48,Androssi,11,14,14,14,1,2,0,2,0,0
48,EdOnCouch,10,17,14,14,1,2,0,2,0,0
48,EricShawn,10,14,14,14,1,2,0,2,0,0
48,PeakABoo,10,30,14,14,1,2,0,3,0,0
48,OverM,10,32,14,14,1,2,0,3,0,0
48,channnnn,10,14,14,14,1,2,0,2,0,0
48,swimlane72,10,24,14,14,1,2,0,2,0,0
48,gohm,9,16,14,14,1,2,0,2,0,0
48,Excidium,8,14,14,14,1,2,0,2,0,0
48,Drummerboyj,8,14,14,14,1,2,0,2,0,0
48,Kolledaboss,8,18,14,14,1,2,0,2,0,0
48,karlito636,8,14,14,14,1,2,0,2,0,0
48,KceoLine,8,18,14,14,1,2,0,2,0,0
48,Zhiga,8,14,14,14,1,2,0,2,0,0
48,superslim-NCP,8,14,14,14,1,2,0,2,0,0
48,chilltown,7,14,14,14,1,2,0,2,0,0
48,Intergalactic,7,21,14,14,1,2,0,2,0,0
48,PooNaniHunter,7,14,14,14,1,2,0,2,0,0
48,Odaja,7,32,14,14,1,2,0,3,0,0
48,EtherKnight,6,14,14,14,1,2,0,2,0,0
48,freaky44,6,14,14,14,1,2,0,2,0,0
48,crusty jane,6,14,14,14,1,2,0,2,0,0
48,Nbecerril53o,5,23,14,14,1,2,0,2,0,0
48,Dasrauscht,5,14,14,14,1,2,0,2,0,0
48,Wasper,12,24,13,13,2,1,0,1,0,0
48,Nininiao,12,20,13,13,2,1,0,1,0,0
48,한국 호빗,12,17,13,13,2,1,0,1,0,0
48,chaoren,12,30,13,13,2,1,0,2,0,0
48,sensebe,10,52,13,13,2,1,0,2,0,0
48,BuidloBagins,10,13,13,13,2,1,0,1,0,0
48,Damaged Gadget,9,13,13,13,2,1,0,1,0,0
48,Saint777,9,13,13,13,2,1,0,1,0,0
48,wic3x5,9,13,13,13,2,1,0,1,0,0
48,ra,9,16,13,13,2,1,0,1,0,0
48,Sir Ike Moesha Broflovski,9,31,13,13,2,1,0,2,0,0
48,Paradime,9,21,13,13,2,1,0,1,0,0
48,trollshock,9,18,13,13,2,1,0,1,0,0
48,ベック,9,13,13,13,2,1,0,1,0,0
48,StardewLover,8,14,13,13,2,1,0,1,0,0
48,Aeternity,8,13,13,13,2,1,0,1,0,0
48,Danbog,8,13,13,13,2,1,0,1,0,0
48,menelvagor,8,35,13,13,2,1,0,2,0,0
48,GodMode,8,13,13,13,2,1,0,1,0,0
48,Kele,8,59,13,13,2,1,0,2,0,0
48,DeusEM,8,13,13,13,2,1,0,1,0,0
48,AMRLordCoins,8,16,13,13,2,1,0,1,0,0
48,trilldebeest,8,24,13,13,2,1,0,1,0,0
48,POOKIDS420,8,21,13,13,2,1,0,1,0,0
48,Noice,8,30,13,13,2,1,0,2,0,0
48,Gerisn,8,14,13,13,2,1,0,1,0,0
48,entling,7,33,13,13,2,1,0,2,0,0
48,SHINZON,7,13,13,13,2,1,0,1,0,0
48,Camypau-,6,13,13,13,2,1,0,1,0,0
48,.XXOTCXX.,6,27,13,13,2,1,0,1,0,0
48,Apoptoza,5,13,13,13,2,1,0,1,0,0
48,cistrans,5,23,13,13,2,1,0,1,0,0
48,Zathura45,4,31,13,13,2,1,0,2,0,0
48,Mcditoos,3,15,13,13,2,1,0,1,0,0
48,JavvaTheHut,3,16,14,13,2,1,0,1,0,0
48,ILLGLORY,2,52,13,13,2,1,0,2,0,0
48,Mahalleinir,1,35,19,13,2,1,0,2,0,0
48,Hungrycoyote,1,18,15,13,2,1,0,1,0,0
48,cholzgu,1,45,14,13,2,1,0,2,0,0
48,Pengio,1,22,16,13,2,1,0,1,0,0
48,SonOfLilith,1,15,13,13,2,1,0,1,0,0
48,Marthyrs,1,13,13,13,2,1,0,1,0,0
48,Inmabeli,1,29,17,13,2,1,0,1,0,0
48,monkey,1,74,17,13,2,1,0,2,0,0
48,Fantasmita,1,45,24,13,2,1,0,2,0,0
48,waddaheck,1,42,13,13,2,1,0,2,0,0
48,ETHHunter,1,34,20,13,2,1,0,2,0,0
48,Woden,12,13,12,12,2,1,0,1,0,0
48,Stede,12,13,12,12,2,1,0,1,0,0
48,sadisteck,11,12,12,12,2,1,0,1,0,0
48,rare,11,12,12,12,2,1,0,1,0,0
48,Bartuni,10,12,12,12,2,1,0,1,0,0
48,BlocksUnchained,10,12,12,12,2,1,0,1,0,0
48,Aragon,10,12,12,12,2,1,0,1,0,0
48,smirnawf,9,12,12,12,2,1,0,1,0,0
48,ěĝĝƑơơƴơůňĝ,9,13,12,12,2,1,0,1,0,0
48,Marginal,9,12,12,12,2,1,0,1,0,0
48,DeHenne,9,14,12,12,2,1,0,1,0,0
48,SneezyDwarf,9,23,12,12,2,1,0,1,0,0
48,Bumboklaat,8,12,12,12,2,1,0,1,0,0
48,reachy,8,12,12,12,2,1,0,1,0,0
48,ferzspb,8,20,12,12,2,1,0,1,0,0
48,deadboy666,8,12,12,12,2,1,0,1,0,0
48,Mice Elf,8,22,12,12,2,1,0,1,0,0
48,plaakkon,8,18,12,12,2,1,0,1,0,0
48,Gladius Mortis,7,12,12,12,2,1,0,1,0,0
48,davirozz,7,12,12,12,2,1,0,1,0,0
48,Rasen_Gan,6,20,12,12,2,1,0,1,0,0
48,Deil713009,5,30,12,12,2,1,0,2,0,0
48,Jinimage,5,15,12,12,2,1,0,1,0,0
48,kentsutse,5,12,12,12,2,1,0,1,0,0
48,VladTheGod,4,26,12,12,2,1,0,1,0,0
48,SatChitAnanda,4,52,12,12,2,1,0,2,0,0
48,whitefly00,4,16,12,12,2,1,0,1,0,0
48,Justin_Bebis,1,36,12,12,2,1,0,2,0,0
48,白乌鸦,12,11,11,11,2,1,0,1,0,0
48,パン,12,11,11,11,2,1,0,1,0,0
48,CopperPitch,12,30,11,11,2,1,0,2,0,0
48,RIP DUDE,12,20,11,11,2,1,0,1,0,0
48,Dave,11,11,11,11,2,1,0,1,0,0
48,Chozami,10,11,11,11,2,1,0,1,0,0
48,DthRevan,10,11,11,11,2,1,0,1,0,0
48,Dactar,10,11,11,11,2,1,0,1,0,0
48,ﺴﺶﻈ,10,11,11,11,2,1,0,1,0,0
48,Þ,10,11,11,11,2,1,0,1,0,0
48,sigfriedCrypto,10,26,11,11,2,1,0,1,0,0
48,RedDeath,10,11,11,11,2,1,0,1,0,0
48,ZAFARI,10,17,11,11,2,1,0,1,0,0
48,✜CryptoDoC✜,10,16,11,11,2,1,0,1,0,0
48,SteelRat,10,12,11,11,2,1,0,1,0,0
48,Pidda1994,9,11,11,11,2,1,0,1,0,0
48,XSITE,9,34,11,11,2,1,0,2,0,0
48,Lifeboy,9,12,11,11,2,1,0,1,0,0
48,Lord of Crypto,9,11,11,11,2,1,0,1,0,0
48,amin,9,39,11,11,2,1,0,2,0,0
48,Surface2AirMissle,9,11,11,11,2,1,0,1,0,0
48,ZENIMOON,8,11,11,11,2,1,0,1,0,0
48,NAGIBATOR,8,13,11,11,2,1,0,1,0,0
48,Cindy,8,11,11,11,2,1,0,1,0,0
48,ulcus,8,26,11,11,2,1,0,1,0,0
48,Hypnotic,8,11,11,11,2,1,0,1,0,0
48,adal111,8,11,11,11,2,1,0,1,0,0
48,trent_reznor,8,12,11,11,2,1,0,1,0,0
48,AlienWeapon,8,11,11,11,2,1,0,1,0,0
48,Chain0tater,8,27,11,11,2,1,0,1,0,0
48,Yurij,8,15,11,11,2,1,0,1,0,0
48,skankhunt42,8,11,11,11,2,1,0,1,0,0
48,Djonbol1,7,17,11,11,2,1,0,1,0,0
48,Nanich,7,17,11,11,2,1,0,1,0,0
48,Yurecsuper,7,16,11,11,2,1,0,1,0,0
48,Slippy P,7,16,11,11,2,1,0,1,0,0
48,CuCu99,7,11,11,11,2,1,0,1,0,0
48,Puspin,7,18,11,11,2,1,0,1,0,0
48,xMrHyd3,7,11,11,11,2,1,0,1,0,0
48,SpicoliAndreti,6,11,11,11,2,1,0,1,0,0
48,shadowstrike42,6,11,11,11,2,1,0,1,0,0
48,Sergee25,6,19,11,11,2,1,0,1,0,0
48,Xile1985,6,11,11,11,2,1,0,1,0,0
48,coSMIX,6,11,11,11,2,1,0,1,0,0
48,MarcheG,5,32,11,11,2,1,0,2,0,0
48,AloVulpin,5,53,11,11,2,1,0,2,0,0
48,Kolesiff,12,16,10,10,3,0,0,0,0,0
48,😎,12,30,10,10,3,0,0,1,0,0
48,hERoIC15397,12,30,10,10,3,0,0,1,0,0
48,Demons,11,32,10,10,3,0,0,1,0,0
48,mike0182,11,14,10,10,3,0,0,0,0,0
48,Salernik,11,10,10,10,3,0,0,0,0,0
48,$,10,64,10,10,3,0,0,1,0,0
48,Oxn,10,12,10,10,3,0,0,0,0,0
48,PHadzhiev,10,11,10,10,3,0,0,0,0,0
48,aleks42316,10,19,10,10,3,0,0,0,0,0
48,Unique.Esprit,10,13,10,10,3,0,0,0,0,0
48,finansisn,10,10,10,10,3,0,0,0,0,0
48,Makakka,9,10,10,10,3,0,0,0,0,0
48,WilliamLee,9,10,10,10,3,0,0,0,0,0
48,Yostari,9,10,10,10,3,0,0,0,0,0
48,Merkuriusmelv0,8,26,10,10,3,0,0,0,0,0
48,superslim,8,17,10,10,3,0,0,0,0,0
48,maragigayan,8,10,10,10,3,0,0,0,0,0
48,Clackity,8,10,10,10,3,0,0,0,0,0
48,Xiato,8,13,10,10,3,0,0,0,0,0
48,dezilver,8,10,10,10,3,0,0,0,0,0
48,cicada,8,48,10,10,3,0,0,1,0,0
48,MustangKirby,8,30,10,10,3,0,0,1,0,0
48,The Nature Boy,7,25,10,10,3,0,0,0,0,0
48,TenTon01,7,16,10,10,3,0,0,0,0,0
48,cockhand,7,10,10,10,3,0,0,0,0,0
48,Kietelaar,6,11,10,10,3,0,0,0,0,0
48,Lyburnum,6,10,10,10,3,0,0,0,0,0
48,vinnyp34,6,10,10,10,3,0,0,0,0,0
48,sczi*987,6,10,10,10,3,0,0,0,0,0
48,grega1999,6,19,10,10,3,0,0,0,0,0
48,ZhiBo,6,20,10,10,3,0,0,0,0,0
48,Brathering,5,11,10,10,3,0,0,0,0,0
48,Xpwao,5,10,10,10,3,0,0,0,0,0
48,apix3222,4,19,10,10,3,0,0,0,0,0
48,jeancarlotapia,1,38,10,10,3,0,0,1,0,0
48,SevenDevil,1,25,10,10,3,0,0,0,0,0
48,skyenya1,1,37,10,10,3,0,0,1,0,0
48,DaCatzMeow,12,9,9,9,3,0,0,0,0,0
48,Elyon,12,11,9,9,3,0,0,0,0,0
48,longdarth,12,9,9,9,3,0,0,0,0,0
48,0x7d31apuz,10,31,9,9,3,0,0,1,0,0
48,ghostrestaurantlab_inago,10,9,9,9,3,0,0,0,0,0
48,TerribleJIexa,10,47,9,9,3,0,0,1,0,0
48,drchronic01,9,9,9,9,3,0,0,0,0,0
48,isaacfufu,9,21,9,9,3,0,0,0,0,0
48,eddie murphy,9,16,9,9,3,0,0,0,0,0
48,Glamlys,9,18,9,9,3,0,0,0,0,0
48,jackow80,9,24,9,9,3,0,0,0,0,0
48,dobindubas,8,10,9,9,3,0,0,0,0,0
48,kovanova,8,9,9,9,3,0,0,0,0,0
48,emiliomorles,7,9,9,9,3,0,0,0,0,0
48,tactics1,7,9,9,9,3,0,0,0,0,0
48,Rvu_Vsem_Duplo,7,9,9,9,3,0,0,0,0,0
48,bouncetree,7,9,9,9,3,0,0,0,0,0
48,Goder,6,9,9,9,3,0,0,0,0,0
48,Roberto23,5,9,9,9,3,0,0,0,0,0
48,-=ÐDrîve~ßyE€=-,5,11,9,9,3,0,0,0,0,0
48,RoadRunner42,5,9,9,9,3,0,0,0,0,0
48,Yate,3,9,9,9,3,0,0,0,0,0
48,---gbg---,3,9,9,9,3,0,0,0,0,0
48,djfuzzylogic,2,9,9,9,3,0,0,0,0,0
48,shaleby_,1,30,9,9,3,0,0,1,0,0
48,kadesam,1,9,9,9,3,0,0,0,0,0
48,zeroturbo,1,9,9,9,3,0,0,0,0,0
48,DaikieRa,1,24,9,9,3,0,0,0,0,0
48,maxifom_,1,9,9,9,3,0,0,0,0,0
48,Cobaltius,1,9,9,9,3,0,0,0,0,0
48,a,12,8,8,8,3,0,0,0,0,0
48,Sir Tango,12,23,8,8,3,0,0,0,0,0
48,Gandalf,12,63,8,8,3,0,0,1,0,0
48,SLIB,11,12,8,8,3,0,0,0,0,0
48,Canubis,11,8,8,8,3,0,0,0,0,0
48,Nighty,10,8,8,8,3,0,0,0,0,0
48,gerundio,10,8,8,8,3,0,0,0,0,0
48,KLMJ,10,8,8,8,3,0,0,0,0,0
48,Enzo05,10,34,8,8,3,0,0,1,0,0
48,blockchaingames.fun,9,8,8,8,3,0,0,0,0,0
48,maybs,9,8,8,8,3,0,0,0,0,0
48,n!ghtl!ght,9,8,8,8,3,0,0,0,0,0
48,magic1993,8,8,8,8,3,0,0,0,0,0
48,densdensdens,8,8,8,8,3,0,0,0,0,0
48,dedemon,8,8,8,8,3,0,0,0,0,0
48,BancoDeCrypto,8,41,8,8,3,0,0,1,0,0
48,Sir Shakerton,8,8,8,8,3,0,0,0,0,0
48,Yell,7,8,8,8,3,0,0,0,0,0
48,jimTurbo,7,8,8,8,3,0,0,0,0,0
48,TradingSocks,7,8,8,8,3,0,0,0,0,0
48,Tamerlan,7,15,8,8,3,0,0,0,0,0
48,agrimony,6,8,8,8,3,0,0,0,0,0
48,Yanicroft,5,8,8,8,3,0,0,0,0,0
48,crypto_bovine,5,8,8,8,3,0,0,0,0,0
48,cirillo77,4,8,8,8,3,0,0,0,0,0
48,Sameersh,3,8,8,8,3,0,0,0,0,0
48,sparky,12,9,7,7,2,0,0,0,0,0
48,Wades.ETH,12,7,7,7,2,0,0,0,0,0
48,Godamnitleeroy,12,7,7,7,2,0,0,0,0,0
48,Mr_*M*E*A*T*,10,7,7,7,2,0,0,0,0,0
48,PaxMagnus,10,7,7,7,2,0,0,0,0,0
48,xcoil,10,7,7,7,2,0,0,0,0,0
48,Tiannizu,9,29,7,7,2,0,0,0,0,0
48,ZEALOT,9,7,7,7,2,0,0,0,0,0
48,spassbol,9,7,7,7,2,0,0,0,0,0
48,darkbluechain,9,13,7,7,2,0,0,0,0,0
48,Bielobog,9,7,7,7,2,0,0,0,0,0
48,Grijander,8,7,7,7,2,0,0,0,0,0
48,BallNChained,8,7,7,7,2,0,0,0,0,0
48,JamesPMiller,8,7,7,7,2,0,0,0,0,0
48,shadowstep33,7,7,7,7,2,0,0,0,0,0
48,KhanVovan,7,8,7,7,2,0,0,0,0,0
48,Santana,7,8,7,7,2,0,0,0,0,0
48,WhiteWhale,6,11,7,7,2,0,0,0,0,0
48,Acecompac,6,11,7,7,2,0,0,0,0,0
48,AdventureStory,6,7,7,7,2,0,0,0,0,0
48,Babooshka,6,9,7,7,2,0,0,0,0,0
48,M.o.D,6,13,7,7,2,0,0,0,0,0
48,Utar Vicar of Pebbles,6,7,7,7,2,0,0,0,0,0
48,juliusnakamoto,5,14,7,7,2,0,0,0,0,0
48,Little Straw Magician,5,7,7,7,2,0,0,0,0,0
48,ronink77,4,7,7,7,2,0,0,0,0,0
48,Hazy1uk2020,4,7,7,7,2,0,0,0,0,0
48,Lezuziusz,12,6,6,6,2,0,0,0,0,0
48,幻,12,6,6,6,2,0,0,0,0,0
48,nihao888,10,6,6,6,2,0,0,0,0,0
48,FriendlySpy,10,6,6,6,2,0,0,0,0,0
48,WildCard0341,9,6,6,6,2,0,0,0,0,0
48,gruberx!,8,7,6,6,2,0,0,0,0,0
48,ThotHtheAtlanteaN,8,6,6,6,2,0,0,0,0,0
48,bs241111,8,6,6,6,2,0,0,0,0,0
48,sargecasey,8,6,6,6,2,0,0,0,0,0
48,SheNut,8,11,6,6,2,0,0,0,0,0
48,Nyktimené,7,6,6,6,2,0,0,0,0,0
48,intacrypt,7,6,6,6,2,0,0,0,0,0
48,Galgorath333,7,6,6,6,2,0,0,0,0,0
48,jiiiklikli,6,20,6,6,2,0,0,0,0,0
48,idncrypto67,5,27,6,6,2,0,0,0,0,0
48,illithid,5,6,6,6,2,0,0,0,0,0
48,Lanari,4,6,6,6,2,0,0,0,0,0
48,LKurokawa,4,6,6,6,2,0,0,0,0,0
48,Ultra-Ice,4,6,6,6,2,0,0,0,0,0
48,Allaunthefox,4,17,6,6,2,0,0,0,0,0
48,Monstr72,4,6,6,6,2,0,0,0,0,0
48,MagicOwl,4,16,6,6,2,0,0,0,0,0
48,digitalknight,1,14,6,6,2,0,0,0,0,0
48,Antichr1s,1,6,6,6,2,0,0,0,0,0
48,Noshlarr,12,5,5,5,2,0,0,0,0,0
48,LordDarktempler,12,5,5,5,2,0,0,0,0,0
48,שלימזל,12,5,5,5,2,0,0,0,0,0
48,Urbanoid,11,5,5,5,2,0,0,0,0,0
48,Aadi1912,11,5,5,5,2,0,0,0,0,0
48,quokku,11,5,5,5,2,0,0,0,0,0
48,Ragnor8476,9,5,5,5,2,0,0,0,0,0
48,BakaWaifu666,9,5,5,5,2,0,0,0,0,0
48,MuffinMonkey,9,5,5,5,2,0,0,0,0,0
48,CardShop,9,5,5,5,2,0,0,0,0,0
48,furryballs,8,5,5,5,2,0,0,0,0,0
48,Totemsh,8,5,5,5,2,0,0,0,0,0
48,wilian9944,8,5,5,5,2,0,0,0,0,0
48,PeriodBloodMouthWash,8,5,5,5,2,0,0,0,0,0
48,DrippSinatra,8,5,5,5,2,0,0,0,0,0
48,freedom2020,7,5,5,5,2,0,0,0,0,0
48,alkibios,7,5,5,5,2,0,0,0,0,0
48,bacoor  hbwallet,7,5,5,5,2,0,0,0,0,0
48,Alpha_adz,6,5,5,5,2,0,0,0,0,0
48,Cryanar,6,5,5,5,2,0,0,0,0,0
48,cybergrinder,5,5,5,5,2,0,0,0,0,0
48,Syonidehyde1165,5,5,5,5,2,0,0,0,0,0
48,huntrhatch,5,5,5,5,2,0,0,0,0,0
48,fwibb.jmm,4,5,5,5,2,0,0,0,0,0
48,Psykokasio,3,5,5,5,2,0,0,0,0,0
48,Zigaliph,3,5,5,5,2,0,0,0,0,0
48,Ohcocomo,3,5,5,5,2,0,0,0,0,0
48,Gurman2020,2,5,5,5,2,0,0,0,0,0
48,__Nikitos53__,1,5,5,5,2,0,0,0,0,0
48,Peacook,1,5,5,5,2,0,0,0,0,0
48,parvez60,1,5,5,5,2,0,0,0,0,0
48,X Æ A-12,12,4,4,4,1,0,0,0,0,0
48,skabber,10,4,4,4,1,0,0,0,0,0
48,destravous,10,4,4,4,1,0,0,0,0,0
48,VonMises,10,4,4,4,1,0,0,0,0,0
48,Varick,10,4,4,4,1,0,0,0,0,0
48,goldemon,9,4,4,4,1,0,0,0,0,0
48,pokerbjj,9,4,4,4,1,0,0,0,0,0
48,LordTits,9,4,4,4,1,0,0,0,0,0
48,marukaziri,9,4,4,4,1,0,0,0,0,0
48,Teemo,8,4,4,4,1,0,0,0,0,0
48,El Dios Desencadenado,8,4,4,4,1,0,0,0,0,0
48,wadamaruz,8,4,4,4,1,0,0,0,0,0
48,Storm Toad,8,4,4,4,1,0,0,0,0,0
48,gu.cards,8,4,4,4,1,0,0,0,0,0
48,Helga999,7,4,4,4,1,0,0,0,0,0
48,Cananopie,7,4,4,4,1,0,0,0,0,0
48,UTP,7,4,4,4,1,0,0,0,0,0
48,Bayou-Bengal,7,4,4,4,1,0,0,0,0,0
48,Easycake001,7,4,4,4,1,0,0,0,0,0
48,jack,7,4,4,4,1,0,0,0,0,0
48,Blockfisher,7,4,4,4,1,0,0,0,0,0
48,Hastal Havista,6,4,4,4,1,0,0,0,0,0
48,strange,6,4,4,4,1,0,0,0,0,0
48,Mlexon,6,4,4,4,1,0,0,0,0,0
48,Apexlion,6,4,4,4,1,0,0,0,0,0
48,TheUnknown,6,4,4,4,1,0,0,0,0,0
48,GV,5,4,4,4,1,0,0,0,0,0
48,megro,5,4,4,4,1,0,0,0,0,0
48,Good,5,4,4,4,1,0,0,0,0,0
48,No Truth,5,4,4,4,1,0,0,0,0,0
48,Fan_1922,4,4,4,4,1,0,0,0,0,0
48,HYBRIDPWN,3,4,4,4,1,0,0,0,0,0
48,TheGreatFrog,3,4,4,4,1,0,0,0,0,0
48,pabloest,1,4,4,4,1,0,0,0,0,0
48,BioHapHazard,1,4,4,4,1,0,0,0,0,0
48,Cryptomarketx,1,4,4,4,1,0,0,0,0,0
48,MyDogZeus,12,3,3,3,1,0,0,0,0,0
48,Blank Never Loses,12,3,3,3,1,0,0,0,0,0
48,SniffOnMe,12,3,3,3,1,0,0,0,0,0
48,carebear,12,3,3,3,1,0,0,0,0,0
48,spaceinvader,12,3,3,3,1,0,0,0,0,0
48,Omegafenix,11,3,3,3,1,0,0,0,0,0
48,Returner,11,3,3,3,1,0,0,0,0,0
48,roytutu,11,3,3,3,1,0,0,0,0,0
48,paprikman,10,3,3,3,1,0,0,0,0,0
48,little1985,10,3,3,3,1,0,0,0,0,0
48,stoeckro,10,3,3,3,1,0,0,0,0,0
48,Ptothehyphen,10,3,3,3,1,0,0,0,0,0
48,Gabriel,9,3,3,3,1,0,0,0,0,0
48,LittleMeTime,9,3,3,3,1,0,0,0,0,0
48,ShadowMagic,9,3,3,3,1,0,0,0,0,0
48,DPRoberts99,9,3,3,3,1,0,0,0,0,0
48,saphst4r,9,3,3,3,1,0,0,0,0,0
48,PeterD,8,3,3,3,1,0,0,0,0,0
48,Olymp,8,3,3,3,1,0,0,0,0,0
48,Des Petrovich,8,3,3,3,1,0,0,0,0,0
48,CryptoJoueur,7,3,3,3,1,0,0,0,0,0
48,Rievserg,7,3,3,3,1,0,0,0,0,0
48,JUMA,7,3,3,3,1,0,0,0,0,0
48,Deadmarsh,7,3,3,3,1,0,0,0,0,0
48,ill_coin,6,3,3,3,1,0,0,0,0,0
48,bobcryptolover,6,3,3,3,1,0,0,0,0,0
48,cheeseburger,6,3,3,3,1,0,0,0,0,0
48,Acolyte,6,3,3,3,1,0,0,0,0,0
48,Mortal,6,3,3,3,1,0,0,0,0,0
48,sevenjay,6,3,3,3,1,0,0,0,0,0
48,Bozie,5,3,3,3,1,0,0,0,0,0
48,Stepuptotheplate2,5,3,3,3,1,0,0,0,0,0
48,Rugdealer,5,3,3,3,1,0,0,0,0,0
48,Anaxamander,5,3,3,3,1,0,0,0,0,0
48,InfamousYetti,4,3,3,3,1,0,0,0,0,0
48,ZolterPro,4,3,3,3,1,0,0,0,0,0
48,LatteBicDic,4,3,3,3,1,0,0,0,0,0
48,Flohh82,4,3,3,3,1,0,0,0,0,0
48,Nomade971,3,3,3,3,1,0,0,0,0,0
48,Syn,3,3,3,3,1,0,0,0,0,0
48,snak3.eth,3,3,3,3,1,0,0,0,0,0
48,MasterMoney22835,3,3,3,3,1,0,0,0,0,0
48,Overlordtrial,3,3,3,3,1,0,0,0,0,0
48,Master_Elliott,3,3,3,3,1,0,0,0,0,0
48,Mavericks,1,3,3,3,1,0,0,0,0,0
48,MichalMad,1,3,3,3,1,0,0,0,0,0
48,Kojiroad,1,3,3,3,1,0,0,0,0,0
48,JudgeNot,1,3,3,3,1,0,0,0,0,0
48,obefreak,1,3,3,3,1,0,0,0,0,0
48,takeshi7,1,3,3,3,1,0,0,0,0,0
48,reterical,12,2,2,2,0,0,0,0,0,0
48,maulotov,12,2,2,2,0,0,0,0,0,0
48,三十九,12,2,2,2,0,0,0,0,0,0
48,Jimmer,12,2,2,2,0,0,0,0,0,0
48,Ota Benga,11,2,2,2,0,0,0,0,0,0
48,のんちゃん,10,2,2,2,0,0,0,0,0,0
48,acidyo,10,2,2,2,0,0,0,0,0,0
48,お金猫,10,2,2,2,0,0,0,0,0,0
48,Adamanty,9,2,2,2,0,0,0,0,0,0
48,btz4u,9,2,2,2,0,0,0,0,0,0
48,exceed,9,2,2,2,0,0,0,0,0,0
48,ScrMcDuck,9,2,2,2,0,0,0,0,0,0
48,Q,9,2,2,2,0,0,0,0,0,0
48,t0w,9,2,2,2,0,0,0,0,0,0
48,ReportMe,8,2,2,2,0,0,0,0,0,0
48,rex.regulus.rey,8,2,2,2,0,0,0,0,0,0
48,masanari,8,2,2,2,0,0,0,0,0,0
48,PCoq,8,2,2,2,0,0,0,0,0,0
48,#1,8,2,2,2,0,0,0,0,0,0
48,emanresu,8,2,2,2,0,0,0,0,0,0
48,Stoneward,8,2,2,2,0,0,0,0,0,0
48,homline,8,2,2,2,0,0,0,0,0,0
48,VIZI,8,2,2,2,0,0,0,0,0,0
48,hiroppy,8,2,2,2,0,0,0,0,0,0
48,karabas666,8,2,2,2,0,0,0,0,0,0
48,maelstrom4880,7,2,2,2,0,0,0,0,0,0
48,untoad,7,2,2,2,0,0,0,0,0,0
48,Krilanz93,7,2,2,2,0,0,0,0,0,0
48,Headsnap,7,2,2,2,0,0,0,0,0,0
48,Montrix,7,2,2,2,0,0,0,0,0,0
48,Xboot,7,2,2,2,0,0,0,0,0,0
48,jnew00,6,2,2,2,0,0,0,0,0,0
48,kirroyale,6,2,2,2,0,0,0,0,0,0
48,Crunaritti,6,2,2,2,0,0,0,0,0,0
48,HypnoGremlin,6,2,2,2,0,0,0,0,0,0
48,Wintermute,6,2,2,2,0,0,0,0,0,0
48,CaptainCola,6,2,2,2,0,0,0,0,0,0
48,trakzenator,6,2,2,2,0,0,0,0,0,0
48,GazzaMine,6,2,2,2,0,0,0,0,0,0
48,onlys,6,2,2,2,0,0,0,0,0,0
48,ZACHISNICE,6,8,2,2,0,0,0,0,0,0
48,MerryWanna,6,2,2,2,0,0,0,0,0,0
48,Meditate_More,5,2,2,2,0,0,0,0,0,0
48,Neomarine,5,2,2,2,0,0,0,0,0,0
48,romansito,5,2,2,2,0,0,0,0,0,0
48,Avatar1188,4,2,2,2,0,0,0,0,0,0
48,majleestoned,4,2,2,2,0,0,0,0,0,0
48,AncientCrypto,4,2,2,2,0,0,0,0,0,0
48,-ONETOC-,4,2,2,2,0,0,0,0,0,0
48,Acolyte,3,2,2,2,0,0,0,0,0,0
48,KingK,3,2,2,2,0,0,0,0,0,0
48,CambionRaven,3,2,2,2,0,0,0,0,0,0
48,Jin Jazama,2,2,2,2,0,0,0,0,0,0
48,*-M4rc0-*,1,2,2,2,0,0,0,0,0,0
48,Demon Party,1,2,2,2,0,0,0,0,0,0
48,Hypocondrix,1,2,2,2,0,0,0,0,0,0
48,Tsuran_men,1,2,2,2,0,0,0,0,0,0
48,R3Yk0,1,2,2,2,0,0,0,0,0,0
48,CastorPollux,12,1,1,1,0,0,0,0,0,0
48,gou,12,1,1,1,0,0,0,0,0,0
48,Cryptotastic,12,1,1,1,0,0,0,0,0,0
48,[Mythic] saints,11,1,1,1,0,0,0,0,0,0
48,CorpGravius,11,1,1,1,0,0,0,0,0,0
48,Bitcoin,11,1,1,1,0,0,0,0,0,0
48,Coldsnap,11,1,1,1,0,0,0,0,0,0
48,Soleone,10,1,1,1,0,0,0,0,0,0
48,Sleeping Goat,10,1,1,1,0,0,0,0,0,0
48,DemonJnr,10,1,1,1,0,0,0,0,0,0
48,doudou2201,10,1,1,1,0,0,0,0,0,0
48,bang39,10,1,1,1,0,0,0,0,0,0
48,Slye,10,1,1,1,0,0,0,0,0,0
48,Chac_Uayab_Xoc,9,1,1,1,0,0,0,0,0,0
48,SpaceCat,9,1,1,1,0,0,0,0,0,0
48,dappjunkie,9,1,1,1,0,0,0,0,0,0
48,grantdub,9,1,1,1,0,0,0,0,0,0
48,betr1488,9,1,1,1,0,0,0,0,0,0
48,Edgecaser,8,1,1,1,0,0,0,0,0,0
48,axordahaxor,8,1,1,1,0,0,0,0,0,0
48,tankthebank,8,1,1,1,0,0,0,0,0,0
48,AIDAN420,8,1,1,1,0,0,0,0,0,0
48,stachu,8,1,1,1,0,0,0,0,0,0
48,AmericanIcarus,8,1,1,1,0,0,0,0,0,0
48,ghostofmerln,8,1,1,1,0,0,0,0,0,0
48,&,8,1,1,1,0,0,0,0,0,0
48,7figurecrypto.com,8,1,1,1,0,0,0,0,0,0
48,kingdavid,8,1,1,1,0,0,0,0,0,0
48,Nikophos,8,1,1,1,0,0,0,0,0,0
48,Pain,8,1,1,1,0,0,0,0,0,0
48,BinaryAssetsGU,8,1,1,1,0,0,0,0,0,0
48,athlee,8,1,1,1,0,0,0,0,0,0
48,AwesomeSparkly,8,1,1,1,0,0,0,0,0,0
48,BL4NKE7,8,1,1,1,0,0,0,0,0,0
48,#JewsOwnedSlavesToo,8,1,1,1,0,0,0,0,0,0
48,JP,8,1,1,1,0,0,0,0,0,0
48,Shinjiz,8,1,1,1,0,0,0,0,0,0
48,Matik,8,1,1,1,0,0,0,0,0,0
48,Mikanova,8,1,1,1,0,0,0,0,0,0
48,andreaskanel,7,1,1,1,0,0,0,0,0,0
48,bushido,7,1,1,1,0,0,0,0,0,0
48,Naio,7,1,1,1,0,0,0,0,0,0
48,Cerberus,7,1,1,1,0,0,0,0,0,0
48,wiim,7,1,1,1,0,0,0,0,0,0
48,CrazyShaman,7,1,1,1,0,0,0,0,0,0
48,runerunner,7,1,1,1,0,0,0,0,0,0
48,matt690,7,1,1,1,0,0,0,0,0,0
48,Magician,7,1,1,1,0,0,0,0,0,0
48,yo.achim,7,1,1,1,0,0,0,0,0,0
48,Bitsavage,7,1,1,1,0,0,0,0,0,0
48,Groootz,6,1,1,1,0,0,0,0,0,0
48,francvol,6,1,1,1,0,0,0,0,0,0
48,Akiro,6,1,1,1,0,0,0,0,0,0
48,Bobmynobster,6,1,1,1,0,0,0,0,0,0
48,Stalysss,6,1,1,1,0,0,0,0,0,0
48,Raapst70,6,1,1,1,0,0,0,0,0,0
48,fullerideas,6,1,1,1,0,0,0,0,0,0
48,Lloyd88!,6,1,1,1,0,0,0,0,0,0
48,Wereldatlas,6,1,1,1,0,0,0,0,0,0
48,DeathLine,6,1,1,1,0,0,0,0,0,0
48,Snow1337,6,1,1,1,0,0,0,0,0,0
48,clausewitz,6,1,1,1,0,0,0,0,0,0
48,maovader888,6,1,1,1,0,0,0,0,0,0
48,ninjanoel,5,1,1,1,0,0,0,0,0,0
48,NIKOLAIII,5,1,1,1,0,0,0,0,0,0
48,Lite_God,5,1,1,1,0,0,0,0,0,0
48,Grigolld,5,1,1,1,0,0,0,0,0,0
48,kb,5,1,1,1,0,0,0,0,0,0
48,ELMITICO,5,1,1,1,0,0,0,0,0,0
48,Jnk_tango,5,1,1,1,0,0,0,0,0,0
48,Taishi,4,1,1,1,0,0,0,0,0,0
48,peposino,4,1,1,1,0,0,0,0,0,0
48,lothendriel,4,1,1,1,0,0,0,0,0,0
48,blakyeltoro,4,1,1,1,0,0,0,0,0,0
48,antimpit,4,1,1,1,0,0,0,0,0,0
48,Theo7131,4,1,1,1,0,0,0,0,0,0
48,darknoj9,4,1,1,1,0,0,0,0,0,0
48,HappyMan811,4,1,1,1,0,0,0,0,0,0
48,Achilles64,3,1,1,1,0,0,0,0,0,0
48,Anthrose,3,1,1,1,0,0,0,0,0,0
48,RedMagnus,3,1,1,1,0,0,0,0,0,0
48,alvaroheredia2,3,1,1,1,0,0,0,0,0,0
48,caga_palitos,2,1,1,1,0,0,0,0,0,0
48,Auscrypto,2,1,1,1,0,0,0,0,0,0
48,BlissFul,2,1,1,1,0,0,0,0,0,0
48,PetraCZ,2,1,1,1,0,0,0,0,0,0
48,Sergi23DD,2,1,1,1,0,0,0,0,0,0
48,PierreNader,1,1,1,1,0,0,0,0,0,0
48,_Legilia_,1,1,1,1,0,0,0,0,0,0
48,Tafu,1,1,1,1,0,0,0,0,0,0
48,noobfromukraine,1,1,1,1,0,0,0,0,0,0
48,werdnotrom,1,1,1,1,0,0,0,0,0,0
48,Sagel403,1,1,1,1,0,0,0,0,0,0
48,Krysmayl,1,1,1,1,0,0,0,0,0,0
48,TheMansh,1,1,1,1,0,0,0,0,0,0
48,gorekill,1,1,1,1,0,0,0,0,0,0
48,mohaya1111,1,1,1,1,0,0,0,0,0,0
48,Juan Enriquez,1,1,1,1,0,0,0,0,0,0
48,Unicron187,1,1,1,1,0,0,0,0,0,0
48,ZerusNexus,1,1,1,1,0,0,0,0,0,0
48,CaptKejoh,1,1,1,1,0,0,0,0,0,0
48,holostooy,1,1,1,1,0,0,0,0,0,0
48,babazina,1,1,1,1,0,0,0,0,0,0
48,inn3rs3lf,1,1,1,1,0,0,0,0,0,0
48,orestese,1,1,1,1,0,0,0,0,0,0
48,grumpjaw,1,1,1,1,0,0,0,0,0,0
48,Jelly,1,1,1,1,0,0,0,0,0,0
48,Jenneer,1,1,1,1,0,0,0,0,0,0
48,HyKakБЬI,1,1,1,1,0,0,0,0,0,0
48,Deathslayer453800,1,1,1,1,0,0,0,0,0,0
48,DeadeyeViking,1,1,1,1,0,0,0,0,0,0
49,[Mythic] GGian,12,35,24,24,0,0,3,1,1,2
49,魔junior,12,22,22,22,0,0,3,0,0,2
49,[tst]cautionfun,12,61,21,21,0,0,2,1,2,1
49,Wezz,12,38,21,21,0,0,2,1,2,1
49,[Mythic] revan,12,31,21,21,0,0,2,1,2,1
49,[tst]bonkthatbutt,12,21,21,21,0,0,2,0,2,1
49,Mirage88,12,48,20,20,0,1,1,2,1,1
49,Ayo,12,28,20,20,0,1,1,1,1,1
49,Lysander,12,23,20,20,0,1,1,1,1,1
49,☺Mythic☺ Dragonstorm,12,37,19,19,0,2,1,1,2,0
49,TREY,12,43,19,19,0,2,1,1,2,0
49,r3hab,12,30,19,19,0,2,1,1,2,0
49,Apollo,12,19,19,19,0,2,1,0,2,0
49,Грумвол,11,19,19,19,0,2,1,0,2,0
49,cryptoznewb,11,19,19,19,0,2,1,0,2,0
49,[tst]themudman,12,56,18,18,0,3,0,1,2,0
49,よしだ,12,40,18,18,0,3,0,1,2,0
49,Ares,9,36,19,18,0,3,0,1,2,0
49,TheNachoSamurai,12,33,18,18,0,3,0,1,2,0
49,自然,12,30,18,18,0,3,0,1,2,0
49,BlackMagic,9,30,19,18,0,3,0,1,2,0
49,Aragon,10,30,18,18,0,3,0,1,2,0
49,sparky,9,27,20,18,0,3,0,0,2,0
49,ногоонзалуу,12,20,18,18,0,3,0,0,2,0
49,GUDecks.com,12,19,18,18,0,3,0,0,2,0
49,[tst] Freedan,12,18,18,18,0,3,0,0,2,0
49,Ἄρης,12,18,18,18,0,3,0,0,2,0
49,Scuffle,12,18,18,18,0,3,0,0,2,0
49,trilldebeest,8,30,17,17,1,2,0,1,2,0
49,Krumpy Lumpkins,12,40,17,17,1,2,0,1,2,0
49,学中文,12,30,17,17,1,2,0,1,2,0
49,sigfriedCrypto,8,27,18,17,1,2,0,0,2,0
49,Fantomasek,12,30,17,17,1,2,0,1,2,0
49,menelvagor,11,18,17,17,1,2,0,0,2,0
49,RavenGuard,12,21,17,17,1,2,0,0,2,0
49,Surface2AirMissle,8,21,19,17,1,2,0,0,2,0
49,[Mythic] Unchained,12,18,17,17,1,2,0,0,2,0
49,Kselsi,8,20,19,17,1,2,0,0,2,0
49,Clackity,9,17,17,17,1,2,0,0,2,0
49,Unique.Esprit,8,18,17,17,1,2,0,0,2,0
49,キツネの叫び,12,17,17,17,1,2,0,0,2,0
49,KLMJ,8,17,17,17,1,2,0,0,2,0
49,UnjustOne,12,17,17,17,1,2,0,0,2,0
49,Hellicon,8,17,17,17,1,2,0,0,2,0
49,Galragg,8,17,17,17,1,2,0,0,2,0
49,Demolisher,8,17,17,17,1,2,0,0,2,0
49,Sir Tango,10,17,17,17,1,2,0,0,2,0
49,☺,7,47,17,16,0,3,0,2,1,0
49,noteboom,11,37,16,16,0,3,0,2,1,0
49,V-Hirvi,12,40,16,16,0,3,0,2,1,0
49,Merkuriusmelv0,8,36,16,16,0,3,0,2,1,0
49,Acecompac,7,32,16,16,0,3,0,2,1,0
49,Demons,12,31,16,16,0,3,0,2,1,0
49,Archangel1318,12,40,16,16,0,3,0,2,1,0
49,Djonbol1,7,30,16,16,0,3,0,2,1,0
49,ザハード,12,30,16,16,0,3,0,2,1,0
49,popovanton89,12,32,16,16,0,3,0,2,1,0
49,Moonpig,11,23,16,16,0,3,0,1,1,0
49,The38th,12,21,16,16,0,3,0,1,1,0
49,davirozz,7,23,16,16,0,3,0,1,1,0
49,Mlon Eusk,12,20,16,16,0,3,0,1,1,0
49,✜,10,18,16,16,0,3,0,1,1,0
49,ElPatron,8,17,16,16,0,3,0,1,1,0
49,Swen 122,8,17,16,16,0,3,0,1,1,0
49,あ,12,19,16,16,0,3,0,1,1,0
49,neverytime,7,20,17,16,0,3,0,1,1,0
49,quantumgamble,10,19,16,16,0,3,0,1,1,0
49,little1985,9,17,16,16,0,3,0,1,1,0
49,Saint777,10,17,16,16,0,3,0,1,1,0
49,Cananopie,7,17,16,16,0,3,0,1,1,0
49,ゆかり,12,17,16,16,0,3,0,1,1,0
49,chaoren,12,16,16,16,0,3,0,1,1,0
49,zlaxor,12,17,16,16,0,3,0,1,1,0
49,colliseum,12,16,16,16,0,3,0,1,1,0
49,mattyesq,9,16,16,16,0,3,0,1,1,0
49,mahkoyu5143,8,16,16,16,0,3,0,1,1,0
49,Drummerboyj,7,20,20,16,0,3,0,1,1,0
49,武将,10,16,16,16,0,3,0,1,1,0
49,Þ,10,16,16,16,0,3,0,1,1,0
49,karlito636,9,16,16,16,0,3,0,1,1,0
49,Bielobog,7,16,16,16,0,3,0,1,1,0
49,שלימזל,12,16,16,16,0,3,0,1,1,0
49,kovanova,7,16,16,16,0,3,0,1,1,0
49,TheHassy,12,16,16,16,0,3,0,1,1,0
49,Glamlys,8,16,16,16,0,3,0,1,1,0
49,⌀,7,16,16,16,0,3,0,1,1,0
49,XSITE,10,54,15,15,1,2,0,3,0,0
49,superslim,8,47,15,15,1,2,0,3,0,0
49,Gandalf,12,42,15,15,1,2,0,3,0,0
49,idncrypto67,6,38,16,15,1,2,0,3,0,0
49,sczi*987,6,33,18,15,1,2,0,3,0,0
49,ƉƉƉƉ,9,31,15,15,1,2,0,3,0,0
49,Starry Ninja,12,21,15,15,1,2,0,2,0,0
49,TheCosmicShame,8,30,15,15,1,2,0,3,0,0
49,roytutu,11,30,15,15,1,2,0,3,0,0
49,Lokilamadupa,12,30,15,15,1,2,0,3,0,0
49,superslim-NCP,8,24,15,15,1,2,0,2,0,0
49,CopperPitch,12,32,15,15,1,2,0,3,0,0
49,Waikikamukau,12,31,15,15,1,2,0,3,0,0
49,slivenec,7,24,15,15,1,2,0,2,0,0
49,longdarth,12,22,15,15,1,2,0,2,0,0
49,cholzgu,8,19,15,15,1,2,0,2,0,0
49,ベック,9,17,15,15,1,2,0,2,0,0
49,Konohime,6,18,15,15,1,2,0,2,0,0
49,Strikeroff,7,16,15,15,1,2,0,2,0,0
49,SLIB,7,15,15,15,1,2,0,2,0,0
49,[Mythic] Ducky,12,16,15,15,1,2,0,2,0,0
49,Resonator,12,15,15,15,1,2,0,2,0,0
49,dobindubas,6,17,17,15,1,2,0,2,0,0
49,Afronizer,10,15,15,15,1,2,0,2,0,0
49,[Pulse] v2,10,15,15,15,1,2,0,2,0,0
49,OverM,11,15,15,15,1,2,0,2,0,0
49,Nininiao,12,15,15,15,1,2,0,2,0,0
49,Jahura_Banu,6,42,14,14,1,2,0,3,0,0
49,Nonchan,12,41,14,14,1,2,0,3,0,0
49,Kinch,12,40,14,14,1,2,0,3,0,0
49,rl958,11,35,14,14,1,2,0,3,0,0
49,Xpwao,5,31,14,14,1,2,0,3,0,0
49,Fantasmita,9,30,14,14,1,2,0,3,0,0
49,Roberto23,6,24,14,14,1,2,0,2,0,0
49,DeHenne,8,21,14,14,1,2,0,2,0,0
49,Sadness,5,24,14,14,1,2,0,2,0,0
49,Slippy P,9,20,14,14,1,2,0,2,0,0
49,xMrHyd3,5,17,14,14,1,2,0,2,0,0
49,SonGokuBg,11,14,14,14,1,2,0,2,0,0
49,Damaged Gadget,9,14,14,14,1,2,0,2,0,0
49,Xiato,6,15,14,14,1,2,0,2,0,0
49,CuCu99,8,15,14,14,1,2,0,2,0,0
49,radi,12,15,14,14,1,2,0,2,0,0
49,SpaceCoastKook,12,15,14,14,1,2,0,2,0,0
49,²³,11,14,14,14,1,2,0,2,0,0
49,Bartuni,10,14,14,14,1,2,0,2,0,0
49,reachy,8,14,14,14,1,2,0,2,0,0
49,たこ,12,14,14,14,1,2,0,2,0,0
49,Μᴇʟᴏɴ,7,14,14,14,1,2,0,2,0,0
49,channnnn,10,14,14,14,1,2,0,2,0,0
49,someonesomeone,12,14,14,14,1,2,0,2,0,0
49,Ragnor8476,8,14,14,14,1,2,0,2,0,0
49,CryptoJoueur,7,14,14,14,1,2,0,2,0,0
49,emiliomorles,8,14,14,14,1,2,0,2,0,0
49,smirnawf,8,14,14,14,1,2,0,2,0,0
49,Zhiga,8,14,14,14,1,2,0,2,0,0
49,VladTheGod,5,14,14,14,1,2,0,2,0,0
49,agrimony,7,14,14,14,1,2,0,2,0,0
49,muhammad,4,69,16,13,2,1,0,2,0,0
49,espina,2,43,15,13,2,1,0,2,0,0
49,KhanVovan,4,36,16,13,2,1,0,2,0,0
49,trance,3,37,14,13,2,1,0,2,0,0
49,DiegoFerreL,11,36,13,13,2,1,0,2,0,0
49,situuu30,8,40,13,13,2,1,0,2,0,0
49,SonOfLilith,3,26,13,13,2,1,0,1,0,0
49,Sir Ike Moesha Broflovski,9,30,13,13,2,1,0,2,0,0
49,Lupusfactusest,1,32,18,13,2,1,0,2,0,0
49,DonnyMacArth,9,24,13,13,2,1,0,1,0,0
49,darkbluechain,9,25,13,13,2,1,0,1,0,0
49,Omen #MetaHash,12,19,13,13,2,1,0,1,0,0
49,tyagamaru,1,30,21,13,2,1,0,2,0,0
49,Sillyconchain,1,20,13,13,2,1,0,1,0,0
49,Fiofan,9,17,13,13,2,1,0,1,0,0
49,Koyaanisqatsi,3,20,15,13,2,1,0,1,0,0
49,Chain0tater,8,22,13,13,2,1,0,1,0,0
49,Shibanqk,12,20,13,13,2,1,0,1,0,0
49,EpicDwarvenLady,1,21,17,13,2,1,0,1,0,0
49,Marthyrs,6,16,13,13,2,1,0,1,0,0
49,Yate,5,18,13,13,2,1,0,1,0,0
49,Nagibator777,12,16,13,13,2,1,0,1,0,0
49,FriendlySpy,9,16,13,13,2,1,0,1,0,0
49,verbalshadow,10,13,13,13,2,1,0,1,0,0
49,paprikman,10,14,13,13,2,1,0,1,0,0
49,DaCatzMeow,11,14,13,13,2,1,0,1,0,0
49,darknoj9,4,19,18,13,2,1,0,1,0,0
49,Naio,6,14,13,13,2,1,0,1,0,0
49,EricShawn,9,14,13,13,2,1,0,1,0,0
49,UTP,6,14,13,13,2,1,0,1,0,0
49,EdOnCouch,11,14,13,13,2,1,0,1,0,0
49,dallas_barr,12,13,13,13,2,1,0,1,0,0
49,allstarrunner,4,15,15,13,2,1,0,1,0,0
49,Woden,12,13,13,13,2,1,0,1,0,0
49,Urbanoid,11,13,13,13,2,1,0,1,0,0
49,force_of_nature,11,13,13,13,2,1,0,1,0,0
49,Ainokami,7,13,13,13,2,1,0,1,0,0
49,gerundio,9,13,13,13,2,1,0,1,0,0
49,trent_reznor,8,13,13,13,2,1,0,1,0,0
49,Zappaboy,8,13,13,13,2,1,0,1,0,0
49,Salernik,10,13,13,13,2,1,0,1,0,0
49,Androssi,9,13,13,13,2,1,0,1,0,0
49,Elfo Strego,5,13,13,13,2,1,0,1,0,0
49,Troofler,1,14,14,13,2,1,0,1,0,0
49,PleaseDontRopeMe,10,13,13,13,2,1,0,1,0,0
49,Des Petrovich,8,13,13,13,2,1,0,1,0,0
49,Lifeboy,9,13,13,13,2,1,0,1,0,0
49,Azazell,2,13,13,13,2,1,0,1,0,0
49,NOXIOUS,10,13,13,13,2,1,0,1,0,0
49,SatChitAnanda,8,37,12,12,2,1,0,2,0,0
49,(｡▼皿▼),11,29,12,12,2,1,0,1,0,0
49,hERoIC15397,12,44,12,12,2,1,0,2,0,0
49,Longy,12,31,12,12,2,1,0,2,0,0
49,M.o.D,4,32,12,12,2,1,0,2,0,0
49,jackow80,7,42,12,12,2,1,0,2,0,0
49,[Twitch4Fun] Kaeserotor,12,35,12,12,2,1,0,2,0,0
49,а,10,31,12,12,2,1,0,2,0,0
49,Tiannizu,9,29,12,12,2,1,0,1,0,0
49,Deil713009,4,19,12,12,2,1,0,1,0,0
49,sensebe,10,23,12,12,2,1,0,1,0,0
49,[Pulse] Aldoc,12,21,12,12,2,1,0,1,0,0
49,Makakka,8,21,12,12,2,1,0,1,0,0
49,swimlane72,12,20,12,12,2,1,0,1,0,0
49,Marioman064,1,16,12,12,2,1,0,1,0,0
49,SheNut,6,17,12,12,2,1,0,1,0,0
49,DaikieRa,8,18,12,12,2,1,0,1,0,0
49,AwesomeSparkly,7,13,12,12,2,1,0,1,0,0
49,Ckastigador,12,16,12,12,2,1,0,1,0,0
49,JadedLight,1,13,12,12,2,1,0,1,0,0
49,wic3x5,9,14,12,12,2,1,0,1,0,0
49,Stede,12,14,12,12,2,1,0,1,0,0
49,LCHammer,12,14,12,12,2,1,0,1,0,0
49,Have,10,12,12,12,2,1,0,1,0,0
49,Marginal,10,13,12,12,2,1,0,1,0,0
49,SniffOnMe,12,12,12,12,2,1,0,1,0,0
49,rare,11,13,12,12,2,1,0,1,0,0
49,fluffyhag,8,12,12,12,2,1,0,1,0,0
49,Nanich,6,12,12,12,2,1,0,1,0,0
49,PhearTheHam,1,12,12,12,2,1,0,1,0,0
49,TerribleJIexa,9,12,12,12,2,1,0,1,0,0
49,ěĝĝƑơơƴơůňĝ,9,12,12,12,2,1,0,1,0,0
49,robotdeniro,6,12,12,12,2,1,0,1,0,0
49,coSMIX,7,12,12,12,2,1,0,1,0,0
49,Thirdman,8,12,12,12,2,1,0,1,0,0
49,Tru+hSe3ker,11,12,12,12,2,1,0,1,0,0
49,Ultra-Ice,4,12,12,12,2,1,0,1,0,0
49,ProAndyKiller,9,12,12,12,2,1,0,1,0,0
49,Dave,10,12,12,12,2,1,0,1,0,0
49,ulcus,7,12,12,12,2,1,0,1,0,0
49,skankhunt42,7,12,12,12,2,1,0,1,0,0
49,Missingo,1,12,12,12,2,1,0,1,0,0
49,isaacfufu,8,12,12,12,2,1,0,1,0,0
49,Digitt,8,12,12,12,2,1,0,1,0,0
49,Yostari,7,12,12,12,2,1,0,1,0,0
49,PaxMagnus,8,12,12,12,2,1,0,1,0,0
49,HeresYourTollTroll,8,52,11,11,2,1,0,2,0,0
49,GOD OF CATS 😻,8,46,11,11,2,1,0,2,0,0
49,Kojiroad,3,44,11,11,2,1,0,2,0,0
49,$,11,38,11,11,2,1,0,2,0,0
49,Resplandor,12,50,11,11,2,1,0,2,0,0
49,grega1999,7,38,11,11,2,1,0,2,0,0
49,Puspin,7,35,11,11,2,1,0,2,0,0
49,Paradime,8,30,11,11,2,1,0,2,0,0
49,WhiteWhale,8,25,11,11,2,1,0,1,0,0
49,superman313,11,21,11,11,2,1,0,1,0,0
49,bs241111,5,24,11,11,2,1,0,1,0,0
49,0x7d31apuz,11,23,11,11,2,1,0,1,0,0
49,Akilsainon,12,23,11,11,2,1,0,1,0,0
49,Oblongfitzoblong,11,16,11,11,2,1,0,1,0,0
49,ETHHunter,8,18,11,11,2,1,0,1,0,0
49,cistrans,7,18,11,11,2,1,0,1,0,0
49,Intergalactic,7,16,11,11,2,1,0,1,0,0
49,serthan,9,16,11,11,2,1,0,1,0,0
49,Nbecerril53o,5,15,11,11,2,1,0,1,0,0
49,Yogalholic,7,14,11,11,2,1,0,1,0,0
49,yiyipolis,1,14,11,11,2,1,0,1,0,0
49,BancoDeCrypto,7,12,11,11,2,1,0,1,0,0
49,Danbog,8,11,11,11,2,1,0,1,0,0
49,SolarMkd,12,12,11,11,2,1,0,1,0,0
49,andrey_gol,1,11,11,11,2,1,0,1,0,0
49,plaakkon,9,12,11,11,2,1,0,1,0,0
49,rob31rob31,10,12,11,11,2,1,0,1,0,0
49,Dactar,9,11,11,11,2,1,0,1,0,0
49,jnew00,6,11,11,11,2,1,0,1,0,0
49,_fireartist,8,11,11,11,2,1,0,1,0,0
49,Noice,9,11,11,11,2,1,0,1,0,0
49,Stoneward,8,11,11,11,2,1,0,1,0,0
49,RedDeath,10,11,11,11,2,1,0,1,0,0
49,dalahad,10,11,11,11,2,1,0,1,0,0
49,blakyeltoro,4,11,11,11,2,1,0,1,0,0
49,Hypnotic,8,11,11,11,2,1,0,1,0,0
49,Manymany,8,11,11,11,2,1,0,1,0,0
49,Odaja,8,11,11,11,2,1,0,1,0,0
49,Chozami,10,11,11,11,2,1,0,1,0,0
49,AnusMundi,8,11,11,11,2,1,0,1,0,0
49,jcsc1989,8,11,11,11,2,1,0,1,0,0
49,---gbg---,3,11,11,11,2,1,0,1,0,0
49,Teemo,8,11,11,11,2,1,0,1,0,0
49,Phosphene,1,11,11,11,2,1,0,1,0,0
49,Deadmarsh,7,11,11,11,2,1,0,1,0,0
49,BakaWaifu666,10,11,11,11,2,1,0,1,0,0
49,spacepirate,8,11,11,11,2,1,0,1,0,0
49,hiroppy,8,11,11,11,2,1,0,1,0,0
49,Denker,8,11,11,11,2,1,0,1,0,0
49,Oxn,10,30,10,10,3,0,0,1,0,0
49,kandwarf,4,30,10,10,3,0,0,1,0,0
49,ferzspb,9,30,10,10,3,0,0,1,0,0
49,Inmabeli,6,24,10,10,3,0,0,0,0,0
49,AMRLordCoins,9,14,10,10,3,0,0,0,0,0
49,monkey,8,12,10,10,3,0,0,0,0,0
49,MustangKirby,9,13,10,10,3,0,0,0,0,0
49,Cryptolemon,12,11,10,10,3,0,0,0,0,0
49,&,8,10,10,10,3,0,0,0,0,0
49,maragigayan,9,10,10,10,3,0,0,0,0,0
49,Zorian,9,10,10,10,3,0,0,0,0,0
49,ZEALOT,8,10,10,10,3,0,0,0,0,0
49,:(,12,10,10,10,3,0,0,0,0,0
49,LetMeLive,12,10,10,10,3,0,0,0,0,0
49,Yanicroft,5,10,10,10,3,0,0,0,0,0
49,JavvaTheHut,5,10,10,10,3,0,0,0,0,0
49,gesscuuu,1,10,10,10,3,0,0,0,0,0
49,BasVanSpanker,11,10,10,10,3,0,0,0,0,0
49,Bobmynobster,4,10,10,10,3,0,0,0,0,0
49,shadowstrike42,7,10,10,10,3,0,0,0,0,0
49,AncientCrypto,3,10,10,10,3,0,0,0,0,0
49,Kolesiff,12,10,10,10,3,0,0,0,0,0
49,cambocleve,9,10,10,10,3,0,0,0,0,0
49,MasterMirror,9,10,10,10,3,0,0,0,0,0
49,MAC,5,10,10,10,3,0,0,0,0,0
49,iluvsheep,7,10,10,10,3,0,0,0,0,0
49,MekMirek,3,10,10,10,3,0,0,0,0,0
49,Elyon,10,10,10,10,3,0,0,0,0,0
49,SanchoHH,6,53,9,9,3,0,0,1,0,0
49,cicada,8,47,9,9,3,0,0,1,0,0
49,intacrypt,7,31,9,9,3,0,0,1,0,0
49,#WhiteStrike,9,30,9,9,3,0,0,1,0,0
49,entling,8,24,9,9,3,0,0,0,0,0
49,Crazy_Goober,1,17,9,9,3,0,0,0,0,0
49,GodMode,7,17,9,9,3,0,0,0,0,0
49,PropanePanda,1,10,9,9,3,0,0,0,0,0
49,Sergee25,7,12,9,9,3,0,0,0,0,0
49,Hungrycoyote,3,9,9,9,3,0,0,0,0,0
49,AlienWeapon,9,14,9,9,3,0,0,0,0,0
49,Wasper,11,9,9,9,3,0,0,0,0,0
49,pokerbjj,6,10,9,9,3,0,0,0,0,0
49,NAGIBATOR,9,9,9,9,3,0,0,0,0,0
49,coinage,9,11,9,9,3,0,0,0,0,0
49,Sparkyknight,7,9,9,9,3,0,0,0,0,0
49,[Taiga] VOLK,12,9,9,9,3,0,0,0,0,0
49,DPRoberts99,8,9,9,9,3,0,0,0,0,0
49,trollshock,9,9,9,9,3,0,0,0,0,0
49,chilltown,7,9,9,9,3,0,0,0,0,0
49,dedemon,8,9,9,9,3,0,0,0,0,0
49,goldemon,8,9,9,9,3,0,0,0,0,0
49,JargonProof,1,9,9,9,3,0,0,0,0,0
49,Alik_Boroda,1,9,9,9,3,0,0,0,0,0
49,Snottysnake,10,9,9,9,3,0,0,0,0,0
49,Goder,6,9,9,9,3,0,0,0,0,0
49,ReidulousKane,3,9,9,9,3,0,0,0,0,0
49,LatteBicDic,4,9,9,9,3,0,0,0,0,0
49,skyenya1,7,27,8,8,3,0,0,0,0,0
49,Mice Elf,9,14,8,8,3,0,0,0,0,0
49,GV,5,13,8,8,3,0,0,0,0,0
49,Prince,10,12,8,8,3,0,0,0,0,0
49,Kietelaar,6,8,8,8,3,0,0,0,0,0
49,Demon Party,1,8,8,8,3,0,0,0,0,0
49,bacoor  hbwallet,8,8,8,8,3,0,0,0,0,0
49,sadisteck,11,8,8,8,3,0,0,0,0,0
49,Akramoff,7,8,8,8,3,0,0,0,0,0
49,Rasen_Gan,7,8,8,8,3,0,0,0,0,0
49,DeMoN666,10,8,8,8,3,0,0,0,0,0
49,alkibios,6,8,8,8,3,0,0,0,0,0
49,Utar Vicar of Pebbles,7,8,8,8,3,0,0,0,0,0
49,Montrix,7,8,8,8,3,0,0,0,0,0
49,Helga999,6,8,8,8,3,0,0,0,0,0
49,Brathering,5,8,8,8,3,0,0,0,0,0
49,gothmaug,10,8,8,8,3,0,0,0,0,0
49,Justin Bebis,5,8,8,8,3,0,0,0,0,0
49,Lighon,7,8,8,8,3,0,0,0,0,0
49,gohm,7,8,8,8,3,0,0,0,0,0
49,Dontacore,1,8,8,8,3,0,0,0,0,0
49,Anaxamander,7,8,8,8,3,0,0,0,0,0
49,Bumboklaat,8,8,8,8,3,0,0,0,0,0
49,ghostofmerln,8,8,8,8,3,0,0,0,0,0
49,theboogyman,8,8,8,8,3,0,0,0,0,0
49,SevenDevil,7,19,7,7,2,0,0,0,0,0
49,Andres,6,13,7,7,2,0,0,0,0,0
49,juliusnakamoto,5,16,7,7,2,0,0,0,0,0
49,Zathura45,7,13,7,7,2,0,0,0,0,0
49,apix3222,6,8,7,7,2,0,0,0,0,0
49,Mlexon,7,8,7,7,2,0,0,0,0,0
49,---MKL---,1,8,7,7,2,0,0,0,0,0
49,SpicoliAndreti,6,7,7,7,2,0,0,0,0,0
49,Drunkigan,4,7,7,7,2,0,0,0,0,0
49,kevis0987,1,7,7,7,2,0,0,0,0,0
49,HungLikeHippo,7,7,7,7,2,0,0,0,0,0
49,Galgorath333,4,7,7,7,2,0,0,0,0,0
49,ZhiBo,7,7,7,7,2,0,0,0,0,0
49,Aadi1912,9,7,7,7,2,0,0,0,0,0
49,nihao888,9,7,7,7,2,0,0,0,0,0
49,spassbol,8,7,7,7,2,0,0,0,0,0
49,freaky44,8,7,7,7,2,0,0,0,0,0
49,Yaratsu,7,7,7,7,2,0,0,0,0,0
49,Butterball6,12,7,7,7,2,0,0,0,0,0
49,Blank Never Loses,11,7,7,7,2,0,0,0,0,0
49,Rievserg,7,7,7,7,2,0,0,0,0,0
49,bang39,9,7,7,7,2,0,0,0,0,0
49,MyDogZeus,12,7,7,7,2,0,0,0,0,0
49,obama,8,7,7,7,2,0,0,0,0,0
49,mike0182,11,7,7,7,2,0,0,0,0,0
49,blockchainedpando,7,7,7,7,2,0,0,0,0,0
49,HaruhiSuzumiya,4,7,7,7,2,0,0,0,0,0
49,ShadowMagic,9,7,7,7,2,0,0,0,0,0
49,eddie murphy,9,32,6,6,2,0,0,1,0,0
49,MarcheG,4,16,6,6,2,0,0,0,0,0
49,Blackbird,5,14,6,6,2,0,0,0,0,0
49,MagicOwl,4,8,6,6,2,0,0,0,0,0
49,amin,9,11,6,6,2,0,0,0,0,0
49,StardewLover,7,8,6,6,2,0,0,0,0,0
49,KceoLine,10,7,6,6,2,0,0,0,0,0
49,pornhub,9,6,6,6,2,0,0,0,0,0
49,Y8Z,9,6,6,6,2,0,0,0,0,0
49,Returner,10,6,6,6,2,0,0,0,0,0
49,a29654776,9,6,6,6,2,0,0,0,0,0
49,ghostrestaurantlab_inago,9,6,6,6,2,0,0,0,0,0
49,Allaunthefox,4,6,6,6,2,0,0,0,0,0
49,GazzaMine,4,6,6,6,2,0,0,0,0,0
49,AngryLookingGuy,4,6,6,6,2,0,0,0,0,0
49,PlinytheEther,10,6,6,6,2,0,0,0,0,0
49,Olymp,7,6,6,6,2,0,0,0,0,0
49,Monstr72,4,6,6,6,2,0,0,0,0,0
49,bit_stan,7,6,6,6,2,0,0,0,0,0
49,axordahaxor,8,6,6,6,2,0,0,0,0,0
49,Santana,4,6,6,6,2,0,0,0,0,0
49,Storm Toad,7,6,6,6,2,0,0,0,0,0
49,yodasoja,3,6,6,6,2,0,0,0,0,0
49,PeterD,8,6,6,6,2,0,0,0,0,0
49,Ramzeez,6,6,6,6,2,0,0,0,0,0
49,Nighty,9,6,6,6,2,0,0,0,0,0
49,ILLGLORY,5,5,5,5,2,0,0,0,0,0
49,Bozie,5,5,5,5,2,0,0,0,0,0
49,ezimedia,7,5,5,5,2,0,0,0,0,0
49,中国鱼,12,5,5,5,2,0,0,0,0,0
49,Jimmer,12,5,5,5,2,0,0,0,0,0
49,SnoozeDragon,7,5,5,5,2,0,0,0,0,0
49,WhiskeyHorseman,1,5,5,5,2,0,0,0,0,0
49,Alpha_adz,7,5,5,5,2,0,0,0,0,0
49,That Guy,1,5,5,5,2,0,0,0,0,0
49,Overlordtrial,3,5,5,5,2,0,0,0,0,0
49,monStar,12,5,5,5,2,0,0,0,0,0
49,Xile1985,6,5,5,5,2,0,0,0,0,0
49,JamesPMiller,10,5,5,5,2,0,0,0,0,0
49,blondin,5,5,5,5,2,0,0,0,0,0
49,LordDarktempler,12,5,5,5,2,0,0,0,0,0
49,cockhand,8,5,5,5,2,0,0,0,0,0
49,WildCard0341,8,5,5,5,2,0,0,0,0,0
49,Isildur,12,5,5,5,2,0,0,0,0,0
49,Diman007,9,5,5,5,2,0,0,0,0,0
49,Raapst70,6,5,5,5,2,0,0,0,0,0
49,reterical,12,5,5,5,2,0,0,0,0,0
49,stachu,8,5,5,5,2,0,0,0,0,0
49,snak3.eth,3,5,5,5,2,0,0,0,0,0
49,TenTon01,8,5,5,5,2,0,0,0,0,0
49,POOKIDS420,6,5,5,5,2,0,0,0,0,0
49,kentsutse,7,5,5,5,2,0,0,0,0,0
49,NecroDamer,1,5,5,5,2,0,0,0,0,0
49,Justinkase,8,5,5,5,2,0,0,0,0,0
49,gu.cards,8,5,5,5,2,0,0,0,0,0
49,Savant.Specter,12,5,5,5,2,0,0,0,0,0
49,Shinjiz,9,5,5,5,2,0,0,0,0,0
49,LegndRicky,8,5,5,5,2,0,0,0,0,0
49,Mayroo09,1,5,5,5,2,0,0,0,0,0
49,arisho,10,5,5,5,2,0,0,0,0,0
49,Martinzillo23,1,5,5,5,2,0,0,0,0,0
49,Babooshka,5,4,4,4,1,0,0,0,0,0
49,AdventureStory,7,4,4,4,1,0,0,0,0,0
49,Sameersh,3,4,4,4,1,0,0,0,0,0
49,AloVulpin,7,4,4,4,1,0,0,0,0,0
49,Varick,11,4,4,4,1,0,0,0,0,0
49,drchronic01,10,4,4,4,1,0,0,0,0,0
49,Noshlarr,10,4,4,4,1,0,0,0,0,0
49,The Nature Boy,6,4,4,4,1,0,0,0,0,0
49,.XXOTCXX.,7,4,4,4,1,0,0,0,0,0
49,finansisn,10,4,4,4,1,0,0,0,0,0
49,TradingSocks,5,4,4,4,1,0,0,0,0,0
49,Jinimage,5,4,4,4,1,0,0,0,0,0
49,한국 호빗,11,4,4,4,1,0,0,0,0,0
49,thepuffin,5,4,4,4,1,0,0,0,0,0
49,MrMousey,7,4,4,4,1,0,0,0,0,0
49,masanari,7,4,4,4,1,0,0,0,0,0
49,AssTra75,1,4,4,4,1,0,0,0,0,0
49,whitefly,1,4,4,4,1,0,0,0,0,0
49,Nyktimené,7,4,4,4,1,0,0,0,0,0
49,Ikonic420,3,4,4,4,1,0,0,0,0,0
49,NiksonTheSuperman,1,4,4,4,1,0,0,0,0,0
49,MuffinMonkey,10,4,4,4,1,0,0,0,0,0
49,😎,12,4,4,4,1,0,0,0,0,0
49,magic1993,8,4,4,4,1,0,0,0,0,0
49,bouncetree,7,4,4,4,1,0,0,0,0,0
49,ThotHtheAtlanteaN,8,4,4,4,1,0,0,0,0,0
49,jiiiklikli,7,4,4,4,1,0,0,0,0,0
49,tactics1,7,4,4,4,1,0,0,0,0,0
49,Ms. Tanith,4,4,4,4,1,0,0,0,0,0
49,BlocksUnchained,10,4,4,4,1,0,0,0,0,0
49,Gladius Mortis,7,4,4,4,1,0,0,0,0,0
49,WilliamLee,8,4,4,4,1,0,0,0,0,0
49,Bilibong,1,4,4,4,1,0,0,0,0,0
49,Amzinglyrwarded,4,4,4,4,1,0,0,0,0,0
49,DemonJnr,7,4,4,4,1,0,0,0,0,0
49,Deep,12,4,4,4,1,0,0,0,0,0
49,Balthazar,5,4,4,4,1,0,0,0,0,0
49,Bitcoin,11,4,4,4,1,0,0,0,0,0
49,[Mythic] VVH,12,4,4,4,1,0,0,0,0,0
49,ibloirio,1,4,4,4,1,0,0,0,0,0
49,Ninjaturtle,8,4,4,4,1,0,0,0,0,0
49,stefky92,1,4,4,4,1,0,0,0,0,0
49,_emrgrrd,1,4,4,4,1,0,0,0,0,0
49,OMNIPOTENT,1,9,3,3,1,0,0,0,0,0
49,Q,9,3,3,3,1,0,0,0,0,0
49,shadowkill{599],4,3,3,3,1,0,0,0,0,0
49,Odin,12,3,3,3,1,0,0,0,0,0
49,Ax-S.C.B,4,3,3,3,1,0,0,0,0,0
49,Yell,8,3,3,3,1,0,0,0,0,0
49,Slackov,12,3,3,3,1,0,0,0,0,0
49,Gabriel,10,3,3,3,1,0,0,0,0,0
49,sample,8,3,3,3,1,0,0,0,0,0
49,domvoj01,6,3,3,3,1,0,0,0,0,0
49,Tamerlan,7,3,3,3,1,0,0,0,0,0
49,aeaon,5,3,3,3,1,0,0,0,0,0
49,oniru,7,3,3,3,1,0,0,0,0,0
49,-=ÐDrîve~ßyE€=-,5,3,3,3,1,0,0,0,0,0
49,JaffyHigg,2,3,3,3,1,0,0,0,0,0
49,sac_z_16,1,3,3,3,1,0,0,0,0,0
49,Cerne,12,3,3,3,1,0,0,0,0,0
49,yo.achim,7,3,3,3,1,0,0,0,0,0
49,doudou2201,10,3,3,3,1,0,0,0,0,0
49,strange,4,3,3,3,1,0,0,0,0,0
49,athlee,8,3,3,3,1,0,0,0,0,0
49,TemoryTgn,3,3,3,3,1,0,0,0,0,0
49,chnoblidan,9,3,3,3,1,0,0,0,0,0
49,Rugdealer,4,3,3,3,1,0,0,0,0,0
49,EtherKnight,8,3,3,3,1,0,0,0,0,0
49,お金猫,9,3,3,3,1,0,0,0,0,0
49,shadowstep33,7,3,3,3,1,0,0,0,0,0
49,-=|Greedy|=-,8,3,3,3,1,0,0,0,0,0
49,ra,8,3,3,3,1,0,0,0,0,0
49,幻,12,3,3,3,1,0,0,0,0,0
49,Valhalla,7,3,3,3,1,0,0,0,0,0
49,tntdabomb,6,3,3,3,1,0,0,0,0,0
49,Mr_*M*E*A*T*,11,3,3,3,1,0,0,0,0,0
49,oldemate,7,3,3,3,1,0,0,0,0,0
49,Master_Elliott,3,3,3,3,1,0,0,0,0,0
49,crypto_bovine,6,2,2,2,0,0,0,0,0,0
49,ronink77,5,2,2,2,0,0,0,0,0,0
49,HardRockMiner,9,2,2,2,0,0,0,0,0,0
49,DthRevan,9,2,2,2,0,0,0,0,0,0
49,Ota Benga,10,2,2,2,0,0,0,0,0,0
49,Wilderness,12,2,2,2,0,0,0,0,0,0
49,restb777,10,2,2,2,0,0,0,0,0,0
49,Lidius89,1,2,2,2,0,0,0,0,0,0
49,huntrhatch,5,2,2,2,0,0,0,0,0,0
49,Vallayen,4,2,2,2,0,0,0,0,0,0
49,Ohcocomo,5,2,2,2,0,0,0,0,0,0
49,AgentOrange,12,2,2,2,0,0,0,0,0,0
49,SteelRat,12,2,2,2,0,0,0,0,0,0
49,MisterTroll,8,2,2,2,0,0,0,0,0,0
49,kityoe00,1,2,2,2,0,0,0,0,0,0
49,Excidium,9,2,2,2,0,0,0,0,0,0
49,Grijander,7,2,2,2,0,0,0,0,0,0
49,ValBelair,9,2,2,2,0,0,0,0,0,0
49,Xboot,7,2,2,2,0,0,0,0,0,0
49,Cryptotastic,12,2,2,2,0,0,0,0,0,0
49,SneezyDwarf,9,2,2,2,0,0,0,0,0,0
49,Fial_Darg,1,2,2,2,0,0,0,0,0,0
49,Omegafenix,10,2,2,2,0,0,0,0,0,0
49,Mahalleinir,7,2,2,2,0,0,0,0,0,0
49,HigH_EnD,12,2,2,2,0,0,0,0,0,0
49,ladolado391,1,2,2,2,0,0,0,0,0,0
49,Cerberus,6,2,2,2,0,0,0,0,0,0
49,knox,3,2,2,2,0,0,0,0,0,0
49,ZACHISNICE,4,2,2,2,0,0,0,0,0,0
49,dr-nuker,4,2,2,2,0,0,0,0,0,0
49,Edgecaser,9,2,2,2,0,0,0,0,0,0
49,白乌鸦,11,2,2,2,0,0,0,0,0,0
49,ReportMe,7,2,2,2,0,0,0,0,0,0
49,Razendless,1,2,2,2,0,0,0,0,0,0
49,gruberx!,6,2,2,2,0,0,0,0,0,0
49,*-M4rc0-*,1,2,2,2,0,0,0,0,0,0
49,Jdeluxe,7,2,2,2,0,0,0,0,0,0
49,MOOSEgod,1,2,2,2,0,0,0,0,0,0
49,pabloest,2,2,2,2,0,0,0,0,0,0
49,اکویٹا,10,2,2,2,0,0,0,0,0,0
49,gorekill,3,2,2,2,0,0,0,0,0,0
49,Dark_Mango,6,2,2,2,0,0,0,0,0,0
49,kalle4551,1,2,2,2,0,0,0,0,0,0
49,Asharen1,4,2,2,2,0,0,0,0,0,0
49,PeriodBloodMouthWash,8,2,2,2,0,0,0,0,0,0
49,akndr2142,7,2,2,2,0,0,0,0,0,0
49,matt690,6,2,2,2,0,0,0,0,0,0
49,boshfred,1,2,2,2,0,0,0,0,0,0
49,Silversteel,1,2,2,2,0,0,0,0,0,0
49,freedom2020,5,2,2,2,0,0,0,0,0,0
49,Planeswalker,1,2,2,2,0,0,0,0,0,0
49,fwibb.jmm,5,2,2,2,0,0,0,0,0,0
49,SamuraiCrusader,1,2,2,2,0,0,0,0,0,0
49,DeadeyeViking,1,2,2,2,0,0,0,0,0,0
49,MrTUNER,6,1,1,1,0,0,0,0,0,0
49,cirillo77,5,1,1,1,0,0,0,0,0,0
49,shaleby_,5,1,1,1,0,0,0,0,0,0
49,carebear,12,1,1,1,0,0,0,0,0,0
49,Headsnap,6,1,1,1,0,0,0,0,0,0
49,Goatar420,1,1,1,1,0,0,0,0,0,0
49,jinsenorobert,1,1,1,1,0,0,0,0,0,0
49,Yurecsuper,8,1,1,1,0,0,0,0,0,0
49,Kage Sama,6,1,1,1,0,0,0,0,0,0
49,marukaziri,9,1,1,1,0,0,0,0,0,0
49,T.kusanagi,8,1,1,1,0,0,0,0,0,0
49,Hedeslag,5,1,1,1,0,0,0,0,0,0
49,quokku,11,1,1,1,0,0,0,0,0,0
49,EL CAPITOCH,1,1,1,1,0,0,0,0,0,0
49,SpicySquid,4,1,1,1,0,0,0,0,0,0
49,isaak4571,1,1,1,1,0,0,0,0,0,0
49,adal111,9,1,1,1,0,0,0,0,0,0
49,FraudulentFree,1,1,1,1,0,0,0,0,0,0
49,Adamanty,8,1,1,1,0,0,0,0,0,0
49,Easycake001,7,1,1,1,0,0,0,0,0,0
49,HappyMan811,4,1,1,1,0,0,0,0,0,0
49,TheUnknown,6,1,1,1,0,0,0,0,0,0
49,PrinceMing88,5,1,1,1,0,0,0,0,0,0
49,ill_coin,6,1,1,1,0,0,0,0,0,0
49,swordofsadness,1,1,1,1,0,0,0,0,0,0
49,btz4u,8,1,1,1,0,0,0,0,0,0
49,Dasrauscht,6,1,1,1,0,0,0,0,0,0
49,XanXus86,1,1,1,1,0,0,0,0,0,0
49,densdensdens,8,1,1,1,0,0,0,0,0,0
49,CardShop,9,1,1,1,0,0,0,0,0,0
49,Bayou-Bengal,8,1,1,1,0,0,0,0,0,0
49,onodrimbr,3,1,1,1,0,0,0,0,0,0
49,Mortal,7,1,1,1,0,0,0,0,0,0
49,RajhaTherma,1,1,1,1,0,0,0,0,0,0
49,JPK,10,1,1,1,0,0,0,0,0,0
49,MaestroGR,8,1,1,1,0,0,0,0,0,0
49,ShiniPlays,1,1,1,1,0,0,0,0,0,0
49,Akiro,6,1,1,1,0,0,0,0,0,0
49,Torggames,4,1,1,1,0,0,0,0,0,0
49,junjun123,1,1,1,1,0,0,0,0,0,0
49,Silver_Coin,5,1,1,1,0,0,0,0,0,0
49,Camypau-,8,1,1,1,0,0,0,0,0,0
49,☭,7,1,1,1,0,0,0,0,0,0
49,Zakaimus,1,1,1,1,0,0,0,0,0,0
49,wiim,7,1,1,1,0,0,0,0,0,0
49,angrygnat,7,1,1,1,0,0,0,0,0,0
49,gecheverria86,7,1,1,1,0,0,0,0,0,0
49,Oplieum31,1,1,1,1,0,0,0,0,0,0
49,TheFireWithin,11,1,1,1,0,0,0,0,0,0
49,saphst4r,9,1,1,1,0,0,0,0,0,0
49,Chalkdust,1,1,1,1,0,0,0,0,0,0
49,GUUNEREEN,7,1,1,1,0,0,0,0,0,0
49,Achilles64,3,1,1,1,0,0,0,0,0,0
49,Nxy,4,1,1,1,0,0,0,0,0,0
49,mmax,9,1,1,1,0,0,0,0,0,0
49,I.L.M.S,1,1,1,1,0,0,0,0,0,0
49,LeeChu,1,1,1,1,0,0,0,0,0,0
49,Sonick10,1,1,1,1,0,0,0,0,0,0
49,Jashby1997,11,1,1,1,0,0,0,0,0,0
49,Adnan,1,1,1,1,0,0,0,0,0,0
49,Stilllight,2,1,1,1,0,0,0,0,0,0
49,epicmacman,4,1,1,1,0,0,0,0,0,0
49,Fenfennn,2,1,1,1,0,0,0,0,0,0
49,taurus1983,4,1,1,1,0,0,0,0,0,0
49,Franestra,1,1,1,1,0,0,0,0,0,0
49,BallNChained,8,1,1,1,0,0,0,0,0,0
49,BlissFul,3,1,1,1,0,0,0,0,0,0
49,shadawawa,10,1,1,1,0,0,0,0,0,0
49,t0w,8,1,1,1,0,0,0,0,0,0
49,El Dios Desencadenado,7,1,1,1,0,0,0,0,0,0
49,Imperator Arcadus,2,1,1,1,0,0,0,0,0,0
49,kigawakunto27,12,1,1,1,0,0,0,0,0,0
49,のんちゃん,10,1,1,1,0,0,0,0,0,0
49,Avatar1188,4,1,1,1,0,0,0,0,0,0
49,facugaba04,5,1,1,1,0,0,0,0,0,0
49,Seekill0626,1,1,1,1,0,0,0,0,0,0
49,kolia31802,7,1,1,1,0,0,0,0,0,0
49,toomey779,6,1,1,1,0,0,0,0,0,0
49,FD_Disaster,6,1,1,1,0,0,0,0,0,0
49,Turbeon8,4,1,1,1,0,0,0,0,0,0
49,HazelStorm,1,1,1,1,0,0,0,0,0,0
49,rolePLAYA,1,1,1,1,0,0,0,0,0,0
49,SirBeugsy,1,1,1,1,0,0,0,0,0,0
49,gadeltoujours,1,1,1,1,0,0,0,0,0,0
49,amiazpes,1,1,1,1,0,0,0,0,0,0
49,cargheus,1,1,1,1,0,0,0,0,0,0
49,Papagiorgio,1,1,1,1,0,0,0,0,0,0
49,Yurij,10,1,1,1,0,0,0,0,0,0
49,Cubic_Gaming,3,1,1,1,0,0,0,0,0,0
49,LexiFjor,1,1,1,1,0,0,0,0,0,0
49,Gauravdagr8,1,1,1,1,0,0,0,0,0,0
49,wihhh001,1,1,1,1,0,0,0,0,0,0
49,Chompetto,8,1,1,1,0,0,0,0,0,0
49,shock,10,1,1,1,0,0,0,0,0,0
49,crusty jane,7,1,1,1,0,0,0,0,0,0
49,Khazrakh,11,1,1,1,0,0,0,0,0,0
49,Blockfisher,9,1,1,1,0,0,0,0,0,0
50,Mirage88,12,76,22,22,0,0,3,1,0,2
50,Wezz,12,31,21,21,0,0,2,1,2,1
50,Ayo,12,30,21,21,0,0,2,1,2,1
50,[tst]cautionfun,12,45,21,21,0,0,2,1,2,1
50,rl958,12,21,20,20,0,1,1,1,1,1
50,The38th,12,30,20,20,0,1,1,2,1,1
50,ゆかり,12,22,20,20,0,1,1,1,1,1
50,Ἄρης,12,30,20,20,0,1,1,2,1,1
50,Cryptolemon,11,20,19,19,0,2,1,0,2,0
50,[tst] Freedan,12,23,19,19,0,2,1,0,2,0
50,あ,12,19,19,19,0,2,1,0,2,0
50,[Mythic] Dragonstorm,12,37,19,19,0,2,1,1,2,0
50,[Mythic] revan,12,30,19,19,0,2,1,1,2,0
50,TheNachoSamurai,12,33,19,19,0,2,1,1,2,0
50,Gandalf,12,32,19,19,0,2,1,1,2,0
50,roytutu,10,35,20,19,0,2,1,1,2,0
50,Apollo,12,23,18,18,0,3,0,0,2,0
50,fluffyhag,9,18,18,18,0,3,0,0,2,0
50,TREY,12,32,18,18,0,3,0,1,2,0
50,[tst]themudman,12,30,18,18,0,3,0,1,2,0
50,Sankhara,10,27,18,18,0,3,0,0,2,0
50,superman313,9,21,19,18,0,3,0,0,2,0
50,Wasper,9,21,20,18,0,3,0,0,2,0
50,channnnn,10,18,18,18,0,3,0,0,2,0
50,GUDecks.com,12,30,18,18,0,3,0,1,2,0
50,ScrMcDuck,9,18,18,18,0,3,0,0,2,0
50,zlaxor,12,18,18,18,0,3,0,0,2,0
50,ногоонзалуу,12,18,18,18,0,3,0,0,2,0
50,SneezyDwarf,9,24,18,18,0,3,0,0,2,0
50,Androssi,9,18,18,18,0,3,0,0,2,0
50,Fantomasek,12,39,18,18,0,3,0,1,2,0
50,Ares,9,34,17,17,1,2,0,1,2,0
50,Demolisher,8,18,18,17,1,2,0,0,2,0
50,Moonpig,11,17,17,17,1,2,0,0,2,0
50,V-Hirvi,12,32,17,17,1,2,0,1,2,0
50,superslim,8,65,19,17,1,2,0,1,2,0
50,SLIB,8,19,17,17,1,2,0,0,2,0
50,Zorian,8,17,17,17,1,2,0,0,2,0
50,XSITE,9,24,17,17,1,2,0,0,2,0
50,0x7d31apuz,9,51,17,17,1,2,0,1,2,0
50,smirnawf,8,17,17,17,1,2,0,0,2,0
50,Drummerboyj,9,17,17,17,1,2,0,0,2,0
50,Cerne,12,17,17,17,1,2,0,0,2,0
50,raz0r,8,18,18,17,1,2,0,0,2,0
50,verbalshadow,9,19,17,17,1,2,0,0,2,0
50,slivenec,8,24,18,17,1,2,0,0,2,0
50,Galragg,8,17,17,17,1,2,0,0,2,0
50,Lysander,12,27,17,17,1,2,0,0,2,0
50,BasVanSpanker,10,19,17,17,1,2,0,0,2,0
50,Tiannizu,8,16,16,16,0,3,0,1,1,0
50,X Æ A-12,9,16,16,16,0,3,0,1,1,0
50,sensebe,10,28,16,16,0,3,0,1,1,0
50,Krumpy Lumpkins,12,41,16,16,0,3,0,2,1,0
50,gohm,8,16,16,16,0,3,0,1,1,0
50,carebear,11,16,16,16,0,3,0,1,1,0
50,Hypnotic,7,16,16,16,0,3,0,1,1,0
50,PooNaniHunter,8,16,16,16,0,3,0,1,1,0
50,LCHammer,12,24,16,16,0,3,0,1,1,0
50,☺,7,54,20,16,0,3,0,2,1,0
50,War69,8,16,16,16,0,3,0,1,1,0
50,Afronizer,10,16,16,16,0,3,0,1,1,0
50,Starry Ninja,7,31,22,16,0,3,0,2,1,0
50,Stoneward,8,17,16,16,0,3,0,1,1,0
50,densdensdens,8,16,16,16,0,3,0,1,1,0
50,jcsc1989,8,16,16,16,0,3,0,1,1,0
50,blockchaingames.fun,7,22,19,16,0,3,0,1,1,0
50,Waikikamukau,11,37,16,16,0,3,0,2,1,0
50,中国鱼,12,19,16,16,0,3,0,1,1,0
50,blacksad,10,16,16,16,0,3,0,1,1,0
50,LetMeLive,12,16,16,16,0,3,0,1,1,0
50,Fëanor,7,42,16,16,0,3,0,2,1,0
50,VonMises,9,22,16,16,0,3,0,1,1,0
50,DiegoFerreL,12,42,16,16,0,3,0,2,1,0
50,hiroppy,9,16,16,16,0,3,0,1,1,0
50,自然,12,32,16,16,0,3,0,2,1,0
50,amin,7,72,17,16,0,3,0,2,1,0
50,TheHassy,12,16,16,16,0,3,0,1,1,0
50,⌀,7,30,18,16,0,3,0,2,1,0
50,ベック,9,30,16,16,0,3,0,2,1,0
50,RagDoll,11,40,16,16,0,3,0,2,1,0
50,StardewLover,6,25,20,15,1,2,0,2,0,0
50,Saint777,11,15,15,15,1,2,0,2,0,0
50,Yanicroft,5,15,15,15,1,2,0,2,0,0
50,kigawakunto27,12,17,15,15,1,2,0,2,0,0
50,Nbecerril53o,5,16,15,15,1,2,0,2,0,0
50,Dactar,8,15,15,15,1,2,0,2,0,0
50,ザハード,12,30,15,15,1,2,0,3,0,0
50,Pesaac2020,6,47,16,15,1,2,0,3,0,0
50,mahkoyu5143,10,16,15,15,1,2,0,2,0,0
50,Ainokami,7,15,15,15,1,2,0,2,0,0
50,DEMON-Dude,5,22,16,15,1,2,0,2,0,0
50,ŽŽŽ,6,30,20,15,1,2,0,3,0,0
50,[Mythic] GGian,12,37,15,15,1,2,0,3,0,0
50,SatChitAnanda,6,39,15,15,1,2,0,3,0,0
50,ElPatron,8,15,15,15,1,2,0,2,0,0
50,Omen #MetaHash,10,25,15,15,1,2,0,2,0,0
50,✜,11,17,15,15,1,2,0,2,0,0
50,Nonchan,12,59,15,15,1,2,0,3,0,0
50,Stede,11,32,15,15,1,2,0,3,0,0
50,---gbg---,5,15,15,15,1,2,0,2,0,0
50,[tst]bonkthatbutt,12,15,15,15,1,2,0,2,0,0
50,MustangKirby,7,30,15,15,1,2,0,3,0,0
50,Ungulate-NCP,12,15,15,15,1,2,0,2,0,0
50,theboogyman,8,15,15,15,1,2,0,2,0,0
50,Diman007,7,14,14,14,1,2,0,2,0,0
50,Cindy,8,14,14,14,1,2,0,2,0,0
50,Tru+hSe3ker,10,14,14,14,1,2,0,2,0,0
50,Grijander,6,37,14,14,1,2,0,3,0,0
50,Slackov,11,14,14,14,1,2,0,2,0,0
50,魔junior,12,15,14,14,1,2,0,2,0,0
50,The Nature Boy,6,14,14,14,1,2,0,2,0,0
50,bs241111,7,21,14,14,1,2,0,2,0,0
50,popovanton89,12,32,14,14,1,2,0,3,0,0
50,キツネの叫び,12,14,14,14,1,2,0,2,0,0
50,rare,12,14,14,14,1,2,0,2,0,0
50,Þ,12,15,14,14,1,2,0,2,0,0
50,noteboom,12,14,14,14,1,2,0,2,0,0
50,🤡,11,17,14,14,1,2,0,2,0,0
50,Sir Tango,11,14,14,14,1,2,0,2,0,0
50,BlackMagic,10,36,14,14,1,2,0,3,0,0
50,NOXIOUS,11,14,14,14,1,2,0,2,0,0
50,凱蒂貓,12,34,14,14,1,2,0,3,0,0
50,trent_reznor,9,14,14,14,1,2,0,2,0,0
50,Kinch,12,25,14,14,1,2,0,2,0,0
50,GOD OF CATS 😻,8,25,14,14,1,2,0,2,0,0
50,SonGokuBg,11,14,14,14,1,2,0,2,0,0
50,grega1999,8,33,14,14,1,2,0,3,0,0
50,PleaseDontRope,9,14,14,14,1,2,0,2,0,0
50,Xpwao,7,30,14,14,1,2,0,3,0,0
50,а,11,14,14,14,1,2,0,2,0,0
50,swimlane72,9,40,14,14,1,2,0,3,0,0
50,superslim-NCP,8,30,14,14,1,2,0,3,0,0
50,Salernik,11,14,14,14,1,2,0,2,0,0
50,⠀,12,37,14,14,1,2,0,3,0,0
50,Rvu_Vsem_Duplo,8,19,14,14,1,2,0,2,0,0
50,Makakka,9,19,13,13,2,1,0,1,0,0
50,JMoney,11,17,13,13,2,1,0,1,0,0
50,Djonbol1,9,27,13,13,2,1,0,1,0,0
50,allstarrunner,7,13,13,13,2,1,0,1,0,0
50,Tripel_Ix,1,14,14,13,2,1,0,1,0,0
50,rikitiktik88,1,23,14,13,2,1,0,1,0,0
50,のんちゃん,10,24,13,13,2,1,0,1,0,0
50,Resonator,12,13,13,13,2,1,0,1,0,0
50,intacrypt,5,15,13,13,2,1,0,1,0,0
50,Noshlarr,9,14,13,13,2,1,0,1,0,0
50,Aeden,1,31,18,13,2,1,0,2,0,0
50,Shibanqk,12,15,13,13,2,1,0,1,0,0
50,colliseum,12,13,13,13,2,1,0,1,0,0
50,SonOfLilith,5,16,13,13,2,1,0,1,0,0
50,NoblusMass,3,22,13,13,2,1,0,1,0,0
50,Roberto23,7,15,13,13,2,1,0,1,0,0
50,Demons,11,13,13,13,2,1,0,1,0,0
50,vogimania,6,13,13,13,2,1,0,1,0,0
50,GodMode,7,34,13,13,2,1,0,2,0,0
50,TheRabbitRun,1,14,14,13,2,1,0,1,0,0
50,Vincent,3,36,17,13,2,1,0,2,0,0
50,el_oaxaco,1,16,15,13,2,1,0,1,0,0
50,stfchamp,8,15,13,13,2,1,0,1,0,0
50,tyagamaru,6,20,13,13,2,1,0,1,0,0
50,Genketsu,1,32,18,13,2,1,0,2,0,0
50,Glamlys,10,13,13,13,2,1,0,1,0,0
50,SolarMkd,11,18,13,13,2,1,0,1,0,0
50,Μᴇʟᴏɴ,8,13,13,13,2,1,0,1,0,0
50,RavenGuard,12,13,13,13,2,1,0,1,0,0
50,pornhub,8,26,13,13,2,1,0,1,0,0
50,Sir Ike Moesha Broflovski,10,30,13,13,2,1,0,2,0,0
50,yoshi0911,3,54,16,13,2,1,0,2,0,0
50,Headsnap,5,13,13,13,2,1,0,1,0,0
50,someonesomeone,12,13,13,13,2,1,0,1,0,0
50,Montrix,8,13,13,13,2,1,0,1,0,0
50,Hellicon,10,14,13,13,2,1,0,1,0,0
50,Sameersh,5,26,13,13,2,1,0,1,0,0
50,DeHenne,10,30,13,13,2,1,0,2,0,0
50,Soyeonji,1,13,13,13,2,1,0,1,0,0
50,Unique.Esprit,9,14,13,13,2,1,0,1,0,0
50,Cryptotastic,12,19,13,13,2,1,0,1,0,0
50,Maeghir,1,17,15,13,2,1,0,1,0,0
50,cryptoznewb,12,14,13,13,2,1,0,1,0,0
50,Thirdman,8,13,13,13,2,1,0,1,0,0
50,CopperPitch,12,14,13,13,2,1,0,1,0,0
50,DudeGuy420,8,16,13,13,2,1,0,1,0,0
50,teajcof11,1,17,16,13,2,1,0,1,0,0
50,suplantox,1,41,13,13,2,1,0,2,0,0
50,学中文,12,30,13,13,2,1,0,2,0,0
50,MarcheG,4,13,12,12,2,1,0,1,0,0
50,aimsuper2,1,15,12,12,2,1,0,1,0,0
50,little1985,10,12,12,12,2,1,0,1,0,0
50,dad,7,12,12,12,2,1,0,1,0,0
50,sadisteck,10,12,12,12,2,1,0,1,0,0
50,Brathering,6,12,12,12,2,1,0,1,0,0
50,[Pulse] Aldoc,11,12,12,12,2,1,0,1,0,0
50,menelvagor,12,13,12,12,2,1,0,1,0,0
50,ZEALOT,7,12,12,12,2,1,0,1,0,0
50,[Mythic] Unchained,12,12,12,12,2,1,0,1,0,0
50,DaoChemist,7,12,12,12,2,1,0,1,0,0
50,Ckastigador,11,30,12,12,2,1,0,2,0,0
50,Longy,11,53,12,12,2,1,0,2,0,0
50,juliusnakamoto,6,13,12,12,2,1,0,1,0,0
50,dalahad,10,12,12,12,2,1,0,1,0,0
50,blondin,6,16,12,12,2,1,0,1,0,0
50,DemonJnr,9,22,12,12,2,1,0,1,0,0
50,gerundio,10,12,12,12,2,1,0,1,0,0
50,darkbluechain,10,13,12,12,2,1,0,1,0,0
50,Naio,6,12,12,12,2,1,0,1,0,0
50,CaptainCola,6,12,12,12,2,1,0,1,0,0
50,AMRLordCoins,7,13,12,12,2,1,0,1,0,0
50,maulotov,12,12,12,12,2,1,0,1,0,0
50,leggoreaver,3,36,12,12,2,1,0,2,0,0
50,Lexis023,1,12,12,12,2,1,0,1,0,0
50,trilldebeest,9,22,12,12,2,1,0,1,0,0
50,RedDeath,11,14,12,12,2,1,0,1,0,0
50,KONA|GOLD,11,33,12,12,2,1,0,2,0,0
50,Livingwish,8,15,12,12,2,1,0,1,0,0
50,Oblongfitzoblong,11,12,12,12,2,1,0,1,0,0
50,ferzspb,11,25,12,12,2,1,0,1,0,0
50,sczi*987,6,24,12,12,2,1,0,1,0,0
50,AwesomeSparkly,7,15,12,12,2,1,0,1,0,0
50,sparky,11,25,12,12,2,1,0,1,0,0
50,DaikieRa,8,30,12,12,2,1,0,2,0,0
50,Elyon,11,14,12,12,2,1,0,1,0,0
50,DrippSinatra,9,14,12,12,2,1,0,1,0,0
50,jackow80,9,49,12,12,2,1,0,2,0,0
50,#WhiteStrike👌🏼,7,37,12,12,2,1,0,2,0,0
50,Aragon,12,12,12,12,2,1,0,1,0,0
50,Nevermore_SoL,1,12,12,12,2,1,0,1,0,0
50,Paradime,8,12,12,12,2,1,0,1,0,0
50,Scuffle,12,12,12,12,2,1,0,1,0,0
50,Xile1985,6,15,12,12,2,1,0,1,0,0
50,cjmoles,7,18,12,12,2,1,0,1,0,0
50,Helga999,6,11,11,11,2,1,0,1,0,0
50,Deil713009,6,22,11,11,2,1,0,1,0,0
50,kityoe00,5,11,11,11,2,1,0,1,0,0
50,Chozami,9,11,11,11,2,1,0,1,0,0
50,Akilsainon,11,11,11,11,2,1,0,1,0,0
50,Gwyndolin,7,23,11,11,2,1,0,1,0,0
50,Koyaanisqatsi,5,11,11,11,2,1,0,1,0,0
50,cholzgu,9,12,11,11,2,1,0,1,0,0
50,maragigayan,9,11,11,11,2,1,0,1,0,0
50,ƉƉƉƉ,9,12,11,11,2,1,0,1,0,0
50,jnew00,6,11,11,11,2,1,0,1,0,0
50,Alpha_Adz,7,22,11,11,2,1,0,1,0,0
50,ValBelair,9,11,11,11,2,1,0,1,0,0
50,force_of_nature,12,11,11,11,2,1,0,1,0,0
50,dobindubas,7,11,11,11,2,1,0,1,0,0
50,Bushmakanic,4,11,11,11,2,1,0,1,0,0
50,ProAndyKiller,9,11,11,11,2,1,0,1,0,0
50,OPEPEN-MAN,12,16,11,11,2,1,0,1,0,0
50,Ota Benga,11,55,11,11,2,1,0,2,0,0
50,ダラスバー,12,11,11,11,2,1,0,1,0,0
50,HeresYourTollTroll,7,19,11,11,2,1,0,1,0,0
50,saynyordie,1,34,11,11,2,1,0,2,0,0
50,AlienWeapon,10,12,11,11,2,1,0,1,0,0
50,karlito636,9,11,11,11,2,1,0,1,0,0
50,freaky44,8,11,11,11,2,1,0,1,0,0
50,Easycake001,7,11,11,11,2,1,0,1,0,0
50,OverM,11,11,11,11,2,1,0,1,0,0
50,Sergee25,9,12,11,11,2,1,0,1,0,0
50,DonnyMacArth,9,39,11,11,2,1,0,2,0,0
50,Hippietrip,4,26,11,11,2,1,0,1,0,0
50,MadMan,2,14,11,11,2,1,0,1,0,0
50,Zhiga,9,11,11,11,2,1,0,1,0,0
50,davirozz,8,37,11,11,2,1,0,2,0,0
50,HaruhiSuzumiya,6,11,11,11,2,1,0,1,0,0
50,Resplandor,12,52,11,11,2,1,0,2,0,0
50,SheNut,6,19,11,11,2,1,0,1,0,0
50,Damaged Gadget,11,10,10,10,3,0,0,0,0,0
50,isaacfufu,8,15,10,10,3,0,0,0,0,0
50,Fiofan,9,17,10,10,3,0,0,0,0,0
50,axordahaxor,7,10,10,10,3,0,0,0,0,0
50,Have,11,10,10,10,3,0,0,0,0,0
50,aniccasankhara,1,10,10,10,3,0,0,0,0,0
50,SanchoHH,8,10,10,10,3,0,0,0,0,0
50,Excidium,9,13,10,10,3,0,0,0,0,0
50,Danbog,7,11,10,10,3,0,0,0,0,0
50,Kietelaar,6,12,10,10,3,0,0,0,0,0
50,Swen 122,9,17,10,10,3,0,0,0,0,0
50,AngryLookingGuy,5,10,10,10,3,0,0,0,0,0
50,Demon Party,4,13,10,10,3,0,0,0,0,0
50,idncrypto67,10,20,10,10,3,0,0,0,0,0
50,BuidloBagins,11,10,10,10,3,0,0,0,0,0
50,SniffOnMe,12,12,10,10,3,0,0,0,0,0
50,EdOnCouch,11,10,10,10,3,0,0,0,0,0
50,TheYndys,1,10,10,10,3,0,0,0,0,0
50,Lokilamadupa,12,10,10,10,3,0,0,0,0,0
50,Bobmynobster,4,10,10,10,3,0,0,0,0,0
50,(｡▼皿▼),8,16,10,10,3,0,0,0,0,0
50,serthan,9,16,10,10,3,0,0,0,0,0
50,Cryptoflaneur,3,10,10,10,3,0,0,0,0,0
50,Prince,10,10,10,10,3,0,0,0,0,0
50,Yate,6,12,10,10,3,0,0,0,0,0
50,DeMoN666,10,31,10,10,3,0,0,1,0,0
50,Mlexon,5,14,10,10,3,0,0,0,0,0
50,TerribleJIexa,9,10,10,10,3,0,0,0,0,0
50,Oleg326756,8,10,10,10,3,0,0,0,0,0
50,ěĝĝƑơơƴơůňĝ,9,10,10,10,3,0,0,0,0,0
50,TheFireWithin,11,10,10,10,3,0,0,0,0,0
50,Marginal,9,16,10,10,3,0,0,0,0,0
50,mglmori,8,19,10,10,3,0,0,0,0,0
50,hERoIC15397,12,30,10,10,3,0,0,1,0,0
50,JamesPMiller,9,10,10,10,3,0,0,0,0,0
50,trollshock,10,14,10,10,3,0,0,0,0,0
50,Kolesiff,12,22,9,9,3,0,0,0,0,0
50,emiliomorles,7,9,9,9,3,0,0,0,0,0
50,Oxn,9,9,9,9,3,0,0,0,0,0
50,iluvsheep,8,9,9,9,3,0,0,0,0,0
50,WhiteWhale,8,21,9,9,3,0,0,0,0,0
50,武将,10,9,9,9,3,0,0,0,0,0
50,doudou2201,10,12,9,9,3,0,0,0,0,0
50,SpicoliAndreti,7,9,9,9,3,0,0,0,0,0
50,MAC,6,9,9,9,3,0,0,0,0,0
50,xanathos,1,9,9,9,3,0,0,0,0,0
50,Xiato,8,9,9,9,3,0,0,0,0,0
50,andrey_gol,3,9,9,9,3,0,0,0,0,0
50,RajhaTherma,3,9,9,9,3,0,0,0,0,0
50,skyenya1,7,9,9,9,3,0,0,0,0,0
50,monStar,11,9,9,9,3,0,0,0,0,0
50,[Mythic] Ducky,12,9,9,9,3,0,0,0,0,0
50,robotdeniro,6,9,9,9,3,0,0,0,0,0
50,plaakkon,10,12,9,9,3,0,0,0,0,0
50,ZhiBo,7,16,9,9,3,0,0,0,0,0
50,reterical,11,8,8,8,3,0,0,0,0,0
50,Tongero0,1,8,8,8,3,0,0,0,0,0
50,GV,6,13,8,8,3,0,0,0,0,0
50,Intergalactic,6,8,8,8,3,0,0,0,0,0
50,Sleeping Goat,10,8,8,8,3,0,0,0,0,0
50,Aadi1912,7,8,8,8,3,0,0,0,0,0
50,Sadness,8,8,8,8,3,0,0,0,0,0
50,sinhead83,2,23,8,8,3,0,0,0,0,0
50,Eliminator,5,8,8,8,3,0,0,0,0,0
50,Hm47goat,5,8,8,8,3,0,0,0,0,0
50,PaxMagnus,11,8,8,8,3,0,0,0,0,0
50,ogcubano,1,10,8,8,3,0,0,0,0,0
50,Tongeroo,1,8,8,8,3,0,0,0,0,0
50,Inmabeli,8,8,8,8,3,0,0,0,0,0
50,ra,8,8,8,8,3,0,0,0,0,0
50,AnusMundi,8,8,8,8,3,0,0,0,0,0
50,Rugdealer,5,8,8,8,3,0,0,0,0,0
50,Overlordtrial,4,8,8,8,3,0,0,0,0,0
50,KLMJ,9,8,8,8,3,0,0,0,0,0
50,Chain0tater,7,8,8,8,3,0,0,0,0,0
50,Bielobog,8,9,8,8,3,0,0,0,0,0
50,cicada,7,37,8,8,3,0,0,1,0,0
50,ILLGLORY,7,45,8,8,3,0,0,1,0,0
50,espina,5,29,8,8,3,0,0,0,0,0
50,Yogalholic,7,8,8,8,3,0,0,0,0,0
50,longdarth,11,16,8,8,3,0,0,0,0,0
50,JimmyBeaver,7,8,8,8,3,0,0,0,0,0
50,trance,6,8,8,8,3,0,0,0,0,0
50,coSMIX,8,8,8,8,3,0,0,0,0,0
50,kovanova,9,8,8,8,3,0,0,0,0,0
50,Odaja,7,8,8,8,3,0,0,0,0,0
50,cistrans,6,8,8,8,3,0,0,0,0,0
50,Yell,8,7,7,7,2,0,0,0,0,0
50,NAGIBATOR,9,7,7,7,2,0,0,0,0,0
50,Yavorlee,1,7,7,7,2,0,0,0,0,0
50,pauk6666,7,7,7,7,2,0,0,0,0,0
50,chilltown,7,7,7,7,2,0,0,0,0,0
50,Stregavax,5,7,7,7,2,0,0,0,0,0
50,eskoll899,1,7,7,7,2,0,0,0,0,0
50,Hexis023,3,9,7,7,2,0,0,0,0,0
50,nihao888,8,7,7,7,2,0,0,0,0,0
50,PlinytheEther,10,7,7,7,2,0,0,0,0,0
50,Lifeboy,10,7,7,7,2,0,0,0,0,0
50,Olymp,5,7,7,7,2,0,0,0,0,0
50,Kolledaboss,8,7,7,7,2,0,0,0,0,0
50,Redguard,1,30,7,7,2,0,0,1,0,0
50,flarbman,3,7,7,7,2,0,0,0,0,0
50,freedom2020,7,7,7,7,2,0,0,0,0,0
50,CryptoHype,4,7,7,7,2,0,0,0,0,0
50,M.o.D,7,22,7,7,2,0,0,0,0,0
50,jbrocket,3,7,7,7,2,0,0,0,0,0
50,MagicOwl,2,69,7,7,2,0,0,1,0,0
50,PrinceH,8,7,7,7,2,0,0,0,0,0
50,Грумвол,12,7,7,7,2,0,0,0,0,0
50,Soothio1,1,7,7,7,2,0,0,0,0,0
50,Mice Elf,7,7,7,7,2,0,0,0,0,0
50,Apexlion,8,7,7,7,2,0,0,0,0,0
50,yo.achim,7,11,7,7,2,0,0,0,0,0
50,Des Petrovich,9,7,7,7,2,0,0,0,0,0
50,Surface2AirMissle,10,7,7,7,2,0,0,0,0,0
50,ZENIMOON,11,6,6,6,2,0,0,0,0,0
50,Soleone,9,6,6,6,2,0,0,0,0,0
50,Shunkaid,1,6,6,6,2,0,0,0,0,0
50,BakaWaifu666,11,6,6,6,2,0,0,0,0,0
50,OllyRenard,7,6,6,6,2,0,0,0,0,0
50,Chapsohn,1,6,6,6,2,0,0,0,0,0
50,kandwarf,6,14,6,6,2,0,0,0,0,0
50,goldemon,8,6,6,6,2,0,0,0,0,0
50,naiden39,5,6,6,6,2,0,0,0,0,0
50,KaliDestro,5,29,6,6,2,0,0,0,0,0
50,[Twitch4Fun] Kaeserotor,12,6,6,6,2,0,0,0,0,0
50,Acecompac,6,6,6,6,2,0,0,0,0,0
50,WildCard0341,8,6,6,6,2,0,0,0,0,0
50,Y8Z,8,6,6,6,2,0,0,0,0,0
50,Jahura_Banu,7,16,6,6,2,0,0,0,0,0
50,CryptoEEra,9,6,6,6,2,0,0,0,0,0
50,SnoozeDragon,6,8,6,6,2,0,0,0,0,0
50,Returner,10,6,6,6,2,0,0,0,0,0
50,ezimedia,5,6,6,6,2,0,0,0,0,0
50,marukaziri,8,6,6,6,2,0,0,0,0,0
50,whitefly,3,6,6,6,2,0,0,0,0,0
50,aeaon,5,6,6,6,2,0,0,0,0,0
50,hitseven,3,6,6,6,2,0,0,0,0,0
50,Coldsnap,11,6,6,6,2,0,0,0,0,0
50,Lollerskates,8,5,5,5,2,0,0,0,0,0
50,Bartuni,10,5,5,5,2,0,0,0,0,0
50,a29654776,9,5,5,5,2,0,0,0,0,0
50,ulcus,8,5,5,5,2,0,0,0,0,0
50,WOLFPT,5,12,5,5,2,0,0,0,0,0
50,reachy,8,5,5,5,2,0,0,0,0,0
50,Wakil Rakyat,1,5,5,5,2,0,0,0,0,0
50,F1rst,11,5,5,5,2,0,0,0,0,0
50,Nanich,7,5,5,5,2,0,0,0,0,0
50,&,8,5,5,5,2,0,0,0,0,0
50,mawichan04,5,5,5,5,2,0,0,0,0,0
50,ghostrestaurantlab_inago,9,5,5,5,2,0,0,0,0,0
50,MasterMirror,9,5,5,5,2,0,0,0,0,0
50,Sonick10,3,5,5,5,2,0,0,0,0,0
50,shadowstrike42,7,5,5,5,2,0,0,0,0,0
50,trakzenator,6,5,5,5,2,0,0,0,0,0
50,yodasoja,6,5,5,5,2,0,0,0,0,0
50,Yostari,8,5,5,5,2,0,0,0,0,0
50,GazzaMine,4,5,5,5,2,0,0,0,0,0
50,Santana,4,5,5,5,2,0,0,0,0,0
50,BancoDeCrypto,7,5,5,5,2,0,0,0,0,0
50,DisgustingHuman,8,5,5,5,2,0,0,0,0,0
50,Utar Vicar of Pebbles,7,5,5,5,2,0,0,0,0,0
50,pokerbjj,6,5,5,5,2,0,0,0,0,0
50,bit_stan,7,5,5,5,2,0,0,0,0,0
50,bang39,10,5,5,5,2,0,0,0,0,0
50,MAXPAIN35,4,5,5,5,2,0,0,0,0,0
50,ZACHISNICE,6,5,5,5,2,0,0,0,0,0
50,arisho,11,5,5,5,2,0,0,0,0,0
50,Galgorath333,4,5,5,5,2,0,0,0,0,0
50,Master_Elliott,4,5,5,5,2,0,0,0,0,0
50,skankhunt42,8,5,5,5,2,0,0,0,0,0
50,AloVulpin,6,4,4,4,1,0,0,0,0,0
50,Ms. Tanith,5,4,4,4,1,0,0,0,0,0
50,Nyktimené,7,4,4,4,1,0,0,0,0,0
50,ill_coin,6,4,4,4,1,0,0,0,0,0
50,El Dios Desencadenado,8,4,4,4,1,0,0,0,0,0
50,PropanePanda,3,4,4,4,1,0,0,0,0,0
50,gesscuuu,5,4,4,4,1,0,0,0,0,0
50,Mr_*M*E*A*T*,11,4,4,4,1,0,0,0,0,0
50,furryballs,8,4,4,4,1,0,0,0,0,0
50,masanari,7,4,4,4,1,0,0,0,0,0
50,stachu,8,4,4,4,1,0,0,0,0,0
50,Leopan_1981,1,4,4,4,1,0,0,0,0,0
50,MuffinMonkey,9,4,4,4,1,0,0,0,0,0
50,Deus30Vult,1,4,4,4,1,0,0,0,0,0
50,gu.cards,8,4,4,4,1,0,0,0,0,0
50,bartek35,1,9,4,4,1,0,0,0,0,0
50,Dasrauscht,6,4,4,4,1,0,0,0,0,0
50,CyrusBlaze,1,4,4,4,1,0,0,0,0,0
50,Delucifer,1,4,4,4,1,0,0,0,0,0
50,Etxebe10,1,4,4,4,1,0,0,0,0,0
50,PuzzleMazl,9,4,4,4,1,0,0,0,0,0
50,sigfriedCrypto,9,4,4,4,1,0,0,0,0,0
50,Cerberus,8,4,4,4,1,0,0,0,0,0
50,edu0884,5,4,4,4,1,0,0,0,0,0
50,datoox09,2,4,4,4,1,0,0,0,0,0
50,.XXOTCXX.,7,4,4,4,1,0,0,0,0,0
50,alkibios,7,4,4,4,1,0,0,0,0,0
50,Fantasmita,10,4,4,4,1,0,0,0,0,0
50,Yurij,9,4,4,4,1,0,0,0,0,0
50,Alik_Boroda,5,4,4,4,1,0,0,0,0,0
50,blue&white,1,4,4,4,1,0,0,0,0,0
50,AlexFid,5,4,4,4,1,0,0,0,0,0
50,Magician,7,4,4,4,1,0,0,0,0,0
50,AgentOrange,11,4,4,4,1,0,0,0,0,0
50,Isildur,12,4,4,4,1,0,0,0,0,0
50,Blockfisher,8,4,4,4,1,0,0,0,0,0
50,JadedLight,7,3,3,3,1,0,0,0,0,0
50,drchronic01,9,3,3,3,1,0,0,0,0,0
50,PeterD,8,3,3,3,1,0,0,0,0,0
50,Mrchains,1,3,3,3,1,0,0,0,0,0
50,Ax-S.C.B,4,3,3,3,1,0,0,0,0,0
50,Ragnor8476,9,3,3,3,1,0,0,0,0,0
50,Blank Never Loses,11,3,3,3,1,0,0,0,0,0
50,coinage,8,3,3,3,1,0,0,0,0,0
50,donaldDuck,1,3,3,3,1,0,0,0,0,0
50,Lilac,12,3,3,3,1,0,0,0,0,0
50,Carlos_Silva,1,3,3,3,1,0,0,0,0,0
50,Achilles64,3,3,3,3,1,0,0,0,0,0
50,お金猫,10,3,3,3,1,0,0,0,0,0
50,restb777,9,3,3,3,1,0,0,0,0,0
50,JaffyHigg,3,3,3,3,1,0,0,0,0,0
50,shadowstep33,7,3,3,3,1,0,0,0,0,0
50,Dontacore,3,3,3,3,1,0,0,0,0,0
50,$,8,3,3,3,1,0,0,0,0,0
50,Torggames,4,3,3,3,1,0,0,0,0,0
50,Souleyman,1,3,3,3,1,0,0,0,0,0
50,ThotHtheAtlanteaN,8,3,3,3,1,0,0,0,0,0
50,inklic,1,3,3,3,1,0,0,0,0,0
50,domvoj01,6,3,3,3,1,0,0,0,0,0
50,Ultra-Ice,4,3,3,3,1,0,0,0,0,0
50,Marthyrs,7,3,3,3,1,0,0,0,0,0
50,kb,4,3,3,3,1,0,0,0,0,0
50,OMNIPOTENT,5,34,3,3,1,0,0,1,0,0
50,Azazell,5,3,3,3,1,0,0,0,0,0
50,piyopiyoman,8,3,3,3,1,0,0,0,0,0
50,MasterKoaz85,1,3,3,3,1,0,0,0,0,0
50,AdventureStory,5,3,3,3,1,0,0,0,0,0
50,TenTon01,8,3,3,3,1,0,0,0,0,0
50,Babooshka,4,3,3,3,1,0,0,0,0,0
50,Mogwai Bubbles,1,3,3,3,1,0,0,0,0,0
50,rob31rob31,10,3,3,3,1,0,0,0,0,0
50,The Cleric,3,3,3,3,1,0,0,0,0,0
50,taurus1983,4,3,3,3,1,0,0,0,0,0
50,Snottysnake,10,3,3,3,1,0,0,0,0,0
50,Letsktor,2,3,3,3,1,0,0,0,0,0
50,Chaos23,1,3,3,3,1,0,0,0,0,0
50,Rievserg,8,3,3,3,1,0,0,0,0,0
50,[Taiga] VOLK,11,3,3,3,1,0,0,0,0,0
50,Drunkigan,5,3,3,3,1,0,0,0,0,0
50,CelestialWarrior,1,3,3,3,1,0,0,0,0,0
50,JMa14,1,3,3,3,1,0,0,0,0,0
50,Tsuran_men,1,3,3,3,1,0,0,0,0,0
50,Shinjiz,9,3,3,3,1,0,0,0,0,0
50,Elfo Strego,6,3,3,3,1,0,0,0,0,0
50,Valhalla,8,3,3,3,1,0,0,0,0,0
50,tengchiang,9,2,2,2,0,0,0,0,0,0
50,777mihman777,9,2,2,2,0,0,0,0,0,0
50,MrWikkid,1,2,2,2,0,0,0,0,0,0
50,BlocksUnchained,10,2,2,2,0,0,0,0,0,0
50,roman22,1,2,2,2,0,0,0,0,0,0
50,cirillo77,5,2,2,2,0,0,0,0,0,0
50,ronink77,5,2,2,2,0,0,0,0,0,0
50,Storm Toad,7,2,2,2,0,0,0,0,0,0
50,Hanri555,11,2,2,2,0,0,0,0,0,0
50,DaCatzMeow,11,2,2,2,0,0,0,0,0,0
50,Lighon,7,2,2,2,0,0,0,0,0,0
50,Rakalel,7,2,2,2,0,0,0,0,0,0
50,j3kakaka,7,2,2,2,0,0,0,0,0,0
50,Akiro,7,2,2,2,0,0,0,0,0,0
50,bobcryptolover,6,2,2,2,0,0,0,0,0,0
50,btz4u,8,2,2,2,0,0,0,0,0,0
50,Infincible,1,2,2,2,0,0,0,0,0,0
50,KingK,3,2,2,2,0,0,0,0,0,0
50,Syonidehyde1165,4,2,2,2,0,0,0,0,0,0
50,ThrawnOmega,1,2,2,2,0,0,0,0,0,0
50,loreennaa,3,2,2,2,0,0,0,0,0,0
50,blackford2,1,2,2,2,0,0,0,0,0,0
50,Blackhalo,1,2,2,2,0,0,0,0,0,0
50,striderbuster,10,2,2,2,0,0,0,0,0,0
50,snak3.eth,4,2,2,2,0,0,0,0,0,0
50,HAL Empire,8,2,2,2,0,0,0,0,0,0
50,Juanita7,3,2,2,2,0,0,0,0,0,0
50,jcrypto,3,2,2,2,0,0,0,0,0,0
50,KamilGlab,3,2,2,2,0,0,0,0,0,0
50,ReidulousKane,4,2,2,2,0,0,0,0,0,0
50,artur795,1,2,2,2,0,0,0,0,0,0
50,Mephisto,1,2,2,2,0,0,0,0,0,0
50,Sp!r!tmonger,8,2,2,2,0,0,0,0,0,0
50,JustGuardian,1,2,2,2,0,0,0,0,0,0
50,bacoor  hbwallet,7,2,2,2,0,0,0,0,0,0
50,Mortal,7,2,2,2,0,0,0,0,0,0
50,Alice,1,2,2,2,0,0,0,0,0,0
50,Tafut Aga,5,2,2,2,0,0,0,0,0,0
50,D0r1n0123,1,2,2,2,0,0,0,0,0,0
50,Tamerlan,7,2,2,2,0,0,0,0,0,0
50,seedlingqueen,1,2,2,2,0,0,0,0,0,0
50,Acusticos,2,2,2,2,0,0,0,0,0,0
50,Anaxamander,8,2,2,2,0,0,0,0,0,0
50,Xboot,7,2,2,2,0,0,0,0,0,0
50,HappyMan811,4,2,2,2,0,0,0,0,0,0
50,jiiiklikli,7,2,2,2,0,0,0,0,0,0
50,quokku,10,2,2,2,0,0,0,0,0,0
50,finansisn,9,2,2,2,0,0,0,0,0,0
50,RETRIPPER,8,2,2,2,0,0,0,0,0,0
50,Pyron,4,2,2,2,0,0,0,0,0,0
50,JPK,10,2,2,2,0,0,0,0,0,0
50,Crazy_Goober,4,2,2,2,0,0,0,0,0,0
50,Sillyconchain,4,2,2,2,0,0,0,0,0,0
50,Bitsavage,5,2,2,2,0,0,0,0,0,0
50,SteelRat,12,2,2,2,0,0,0,0,0,0
50,yottAholic,1,2,2,2,0,0,0,0,0,0
50,Zenic11,4,1,1,1,0,0,0,0,0,0
50,EtherKnight,8,1,1,1,0,0,0,0,0,0
50,Edgecaser,10,1,1,1,0,0,0,0,0,0
50,Teemo,9,1,1,1,0,0,0,0,0,0
50,evas,3,1,1,1,0,0,0,0,0,0
50,blasinho,8,1,1,1,0,0,0,0,0,0
50,Taishi,4,1,1,1,0,0,0,0,0,0
50,cambocleve,9,1,1,1,0,0,0,0,0,0
50,chnoblidan,9,1,1,1,0,0,0,0,0,0
50,Vasitocoin,2,1,1,1,0,0,0,0,0,0
50,CryptoJoueur,7,1,1,1,0,0,0,0,0,0
50,Frehalo1,1,1,1,1,0,0,0,0,0,0
50,prism610,1,1,1,1,0,0,0,0,0,0
50,DthRevan,8,1,1,1,0,0,0,0,0,0
50,Avatar1188,4,1,1,1,0,0,0,0,0,0
50,crystalhuman,6,1,1,1,0,0,0,0,0,0
50,futuremars051,8,1,1,1,0,0,0,0,0,0
50,gruberx!,7,1,1,1,0,0,0,0,0,0
50,facugaba04,5,1,1,1,0,0,0,0,0,0
50,Xafarius,1,1,1,1,0,0,0,0,0,0
50,*-M4rc0-*,2,1,1,1,0,0,0,0,0,0
50,MaestroGR,8,1,1,1,0,0,0,0,0,0
50,Tinkode,1,1,1,1,0,0,0,0,0,0
50,MasterMuze,2,1,1,1,0,0,0,0,0,0
50,AmericanIcarus,8,1,1,1,0,0,0,0,0,0
50,WilliamLee,8,1,1,1,0,0,0,0,0,0
50,Noldziks,1,1,1,1,0,0,0,0,0,0
50,Zzodiacz,7,1,1,1,0,0,0,0,0,0
50,xvaimC70,1,1,1,1,0,0,0,0,0,0
50,AdrianoMeis,1,1,1,1,0,0,0,0,0,0
50,Hastal Havista,6,1,1,1,0,0,0,0,0,0
50,phatsoicp,1,1,1,1,0,0,0,0,0,0
50,thesaintstreams,1,1,1,1,0,0,0,0,0,0
50,FriendlySpy,8,1,1,1,0,0,0,0,0,0
50,The Book,9,1,1,1,0,0,0,0,0,0
50,Aleksea222,1,1,1,1,0,0,0,0,0,0
50,gothmaug,10,1,1,1,0,0,0,0,0,0
50,NotMyName,1,1,1,1,0,0,0,0,0,0
50,ThyWizardOz,1,1,1,1,0,0,0,0,0,0
50,Credo1986,7,1,1,1,0,0,0,0,0,0
50,BlueBeard,3,1,1,1,0,0,0,0,0,0
50,mitkolukanov,1,1,1,1,0,0,0,0,0,0
50,PlasticCarrot,5,1,1,1,0,0,0,0,0,0
50,Alexis,9,1,1,1,0,0,0,0,0,0
50,QuinnBear,11,1,1,1,0,0,0,0,0,0
50,radi,12,1,1,1,0,0,0,0,0,0
50,Kojiroad,6,1,1,1,0,0,0,0,0,0
50,Matschi300,3,1,1,1,0,0,0,0,0,0
50,FailMan XXL,1,1,1,1,0,0,0,0,0,0
50,blakyeltoro,6,1,1,1,0,0,0,0,0,0
50,GJGaruda,1,1,1,1,0,0,0,0,0,0
50,EmilED358,1,1,1,1,0,0,0,0,0,0
50,Jashby1997,11,1,1,1,0,0,0,0,0,0
50,strange,5,1,1,1,0,0,0,0,0,0
50,mike0182,10,1,1,1,0,0,0,0,0,0
50,ShinChan,1,1,1,1,0,0,0,0,0,0
50,wiim,6,1,1,1,0,0,0,0,0,0
50,Cro-JayJay,1,1,1,1,0,0,0,0,0,0
50,FraudulentFree,1,1,1,1,0,0,0,0,0,0
50,Fan_1922,5,1,1,1,0,0,0,0,0,0
50,たこ,12,1,1,1,0,0,0,0,0,0
50,fwibb.jmm,5,1,1,1,0,0,0,0,0,0
50,Bayou-Bengal,8,1,1,1,0,0,0,0,0,0
50,UnjustOne,12,1,1,1,0,0,0,0,0,0
50,Romulus10,1,1,1,1,0,0,0,0,0,0
50,PeriodBloodMouthWash,7,1,1,1,0,0,0,0,0,0
50,MrTUNER,5,1,1,1,0,0,0,0,0,0
50,Moneybags,9,1,1,1,0,0,0,0,0,0
50,POOKIDS420,5,1,1,1,0,0,0,0,0,0
50,knox,4,1,1,1,0,0,0,0,0,0
50,onlys,6,1,1,1,0,0,0,0,0,0
50,Dochrnix,8,1,1,1,0,0,0,0,0,0
50,CaptainMurika,6,1,1,1,0,0,0,0,0,0
50,TheDutchDude,7,1,1,1,0,0,0,0,0,0
50,bwindi,6,1,1,1,0,0,0,0,0,0
50,chaoren,12,1,1,1,0,0,0,0,0,0
50,Varick,9,1,1,1,0,0,0,0,0,0
50,Noice,8,1,1,1,0,0,0,0,0,0
50,MaxMatheus,8,1,1,1,0,0,0,0,0,0
50,takeshi7,1,1,1,1,0,0,0,0,0,0
50,Ninjaturtle,9,1,1,1,0,0,0,0,0,0
50,Zappaboy,8,1,1,1,0,0,0,0,0,0
50,[GOATGang]nelyp,6,1,1,1,0,0,0,0,0,0
50,Aziekial,10,1,1,1,0,0,0,0,0,0
50,GL1TCH,8,1,1,1,0,0,0,0,0,0
50,dr-nuker,4,1,1,1,0,0,0,0,0,0
50,Pmoisenko07@gmail.com,1,1,1,1,0,0,0,0,0,0
50,ロさん,10,1,1,1,0,0,0,0,0,0
50,Y-crad11,1,1,1,1,0,0,0,0,0,0
50,CryptoAtlas,7,1,1,1,0,0,0,0,0,0
50,CountPenta,1,1,1,1,0,0,0,0,0,0
51,Wilderness,12,23,22,22,0,0,3,0,0,2
51,Mirage88,12,87,22,22,0,0,3,1,0,2
51,あ,12,22,22,22,0,0,3,0,0,2
51,Demons,11,58,21,21,0,0,2,1,2,1
51,Ayo,12,21,21,21,0,0,2,0,2,1
51,TheHassy,12,21,21,21,0,0,2,0,2,1
51,Resonator,12,20,20,20,0,1,1,1,1,1
51,Gandalf,12,42,20,20,0,1,1,2,1,1
51,Nonchan,12,32,20,20,0,1,1,2,1,1
51,Ἄρης,12,20,20,20,0,1,1,1,1,1
51,⠀r3hab,12,20,20,20,0,1,1,1,1,1
51,Fantomasek,12,38,20,20,0,1,1,2,1,1
51,Wezz,12,30,19,19,0,2,1,1,2,0
51,V-Hirvi,12,31,19,19,0,2,1,1,2,0
51,[Pulse] Aldoc,11,19,19,19,0,2,1,0,2,0
51,SniffOnMe,12,21,19,19,0,2,1,0,2,0
51,[tst]cautionfun,12,30,19,19,0,2,1,1,2,0
51,someonesomeone,12,19,19,19,0,2,1,0,2,0
51,ногоонзалуу,12,19,19,19,0,2,1,0,2,0
51,Ares,9,35,18,18,0,3,0,1,2,0
51,[tst]themudman,12,48,18,18,0,3,0,1,2,0
51,Veloth,12,22,18,18,0,3,0,0,2,0
51,trilldebeest,9,18,18,18,0,3,0,0,2,0
51,roytutu,11,30,18,18,0,3,0,1,2,0
51,flex13,12,30,18,18,0,3,0,1,2,0
51,Pidda1994,8,17,17,17,1,2,0,0,2,0
51,Cindy,9,17,17,17,1,2,0,0,2,0
51,CryptoJoueur,8,19,19,17,1,2,0,0,2,0
51,"漢字, 汉字",8,18,18,17,1,2,0,0,2,0
51,Moonpig,10,18,17,17,1,2,0,0,2,0
51,X Æ A-12,8,20,18,17,1,2,0,0,2,0
51,cholzgu,8,35,17,17,1,2,0,1,2,0
51,ZEALOT,8,17,17,17,1,2,0,0,2,0
51,😎,12,17,17,17,1,2,0,0,2,0
51,raz0r,8,18,18,17,1,2,0,0,2,0
51,[F2P] Mythic Unchain NCP,9,59,17,17,1,2,0,1,2,0
51,Charles Utkins,12,18,17,17,1,2,0,0,2,0
51,Kinch,11,26,17,17,1,2,0,0,2,0
51,PleaseDontRope,8,17,17,17,1,2,0,0,2,0
51,ěĝĝƑơơƴơůňĝ,8,18,17,17,1,2,0,0,2,0
51,Xpwao,8,30,17,17,1,2,0,1,2,0
51,sparky,10,57,17,17,1,2,0,1,2,0
51,Hellicon,9,18,17,17,1,2,0,0,2,0
51,[tst]bonkthatbutt,12,18,17,17,1,2,0,0,2,0
51,zlaxor,12,20,17,17,1,2,0,0,2,0
51,CopperPitch,12,20,17,17,1,2,0,0,2,0
51,ベック,11,30,17,17,1,2,0,1,2,0
51,Surface2AirMissle,9,17,17,17,1,2,0,0,2,0
51,ZENIMOON,10,17,16,16,0,3,0,1,1,0
51,Tripel_Ix,7,17,17,16,0,3,0,1,1,0
51,Bumboklaat,8,16,16,16,0,3,0,1,1,0
51,Apollo,12,22,16,16,0,3,0,1,1,0
51,Excidium,8,16,16,16,0,3,0,1,1,0
51,ザハード,12,30,16,16,0,3,0,2,1,0
51,gohm,9,16,16,16,0,3,0,1,1,0
51,[tst] Unchained Fan,12,16,16,16,0,3,0,1,1,0
51,Slackov,11,17,16,16,0,3,0,1,1,0
51,ValBelair,8,16,16,16,0,3,0,1,1,0
51,三十八,12,16,16,16,0,3,0,1,1,0
51,Ckastigador,12,30,16,16,0,3,0,2,1,0
51,Oxn,8,21,16,16,0,3,0,1,1,0
51,[Mythic] revan,12,17,16,16,0,3,0,1,1,0
51,iluvbitcoins,7,17,17,16,0,3,0,1,1,0
51,TheRabbitRun,7,18,17,16,0,3,0,1,1,0
51,rare,12,17,16,16,0,3,0,1,1,0
51,TheNachoSamurai,12,37,16,16,0,3,0,2,1,0
51,wic3x5,7,17,16,16,0,3,0,1,1,0
51,Starry Ninja,7,16,16,16,0,3,0,1,1,0
51,densdensdens,8,16,16,16,0,3,0,1,1,0
51,Sir Tango,12,17,16,16,0,3,0,1,1,0
51,BlackMagic,12,33,16,16,0,3,0,2,1,0
51,slivenec,7,19,18,16,0,3,0,1,1,0
51,KLMJ,8,16,16,16,0,3,0,1,1,0
51,RavenGuard,12,16,16,16,0,3,0,1,1,0
51,Грумвол,12,16,16,16,0,3,0,1,1,0
51,שלימזל,12,16,16,16,0,3,0,1,1,0
51,[Taiga] VOLK,11,19,16,16,0,3,0,1,1,0
51,VonMises,11,27,16,16,0,3,0,1,1,0
51,DrippSinatra,8,23,16,16,0,3,0,1,1,0
51,MustangKirby,8,34,16,16,0,3,0,2,1,0
51,Lysander,12,31,16,16,0,3,0,2,1,0
51,Scuffle,12,16,16,16,0,3,0,1,1,0
51,七月十日,12,16,16,16,0,3,0,1,1,0
51,allstarrunner,6,16,16,15,1,2,0,2,0,0
51,Akilsainon,11,15,15,15,1,2,0,2,0,0
51,Bozie,5,20,15,15,1,2,0,2,0,0
51,[F2P]BonkNCP,12,15,15,15,1,2,0,2,0,0
51,GodhookzTTV,5,73,15,15,1,2,0,3,0,0
51,PooNaniHunter,8,22,15,15,1,2,0,2,0,0
51,dobindubas,6,16,16,15,1,2,0,2,0,0
51,Cananopie,8,18,15,15,1,2,0,2,0,0
51,Drummerboyj,10,15,15,15,1,2,0,2,0,0
51,アトリ,12,15,15,15,1,2,0,2,0,0
51,Prince,9,19,15,15,1,2,0,2,0,0
51,[Mythic] GGian,12,31,15,15,1,2,0,3,0,0
51,Waikikamukau,11,23,15,15,1,2,0,2,0,0
51,freaky44,8,15,15,15,1,2,0,2,0,0
51,cicada,8,33,15,15,1,2,0,3,0,0
51,AwesomeSparkly,8,15,15,15,1,2,0,2,0,0
51,Returner,10,15,15,15,1,2,0,2,0,0
51,Fëanor,5,49,17,15,1,2,0,3,0,0
51,Elyon,11,23,15,15,1,2,0,2,0,0
51,✜,12,16,15,15,1,2,0,2,0,0
51,Dave,9,39,15,15,1,2,0,3,0,0
51,Sameersh,5,22,15,15,1,2,0,2,0,0
51,JMa14,5,20,16,15,1,2,0,2,0,0
51,theboogyman,8,17,15,15,1,2,0,2,0,0
51,Resplandor,9,18,15,15,1,2,0,2,0,0
51,⌀,6,16,16,15,1,2,0,2,0,0
51,Kolesiff,12,23,14,14,1,2,0,2,0,0
51,ulcus,7,38,14,14,1,2,0,3,0,0
51,Saint777,12,14,14,14,1,2,0,2,0,0
51,TREY,12,15,14,14,1,2,0,2,0,0
51,Dactar,8,14,14,14,1,2,0,2,0,0
51,Kietelaar,6,30,14,14,1,2,0,3,0,0
51,rl958,12,14,14,14,1,2,0,2,0,0
51,superslim,8,28,14,14,1,2,0,2,0,0
51,jnew00,6,14,14,14,1,2,0,2,0,0
51,shaleby_,5,14,14,14,1,2,0,2,0,0
51,Pesaac2020,8,25,14,14,1,2,0,2,0,0
51,魔junior,12,15,14,14,1,2,0,2,0,0
51,0x7d31apuz,9,30,14,14,1,2,0,3,0,0
51,carebear,12,14,14,14,1,2,0,2,0,0
51,vogimania,8,19,14,14,1,2,0,2,0,0
51,Hypnotic,8,14,14,14,1,2,0,2,0,0
51,MasterMirror,9,15,14,14,1,2,0,2,0,0
51,smirnawf,9,14,14,14,1,2,0,2,0,0
51,inklic,6,31,14,14,1,2,0,3,0,0
51,GodMode,7,14,14,14,1,2,0,2,0,0
51,キツネの叫び,12,14,14,14,1,2,0,2,0,0
51,doudou2201,8,17,14,14,1,2,0,2,0,0
51,ProAndyKiller,8,14,14,14,1,2,0,2,0,0
51,noteboom,12,14,14,14,1,2,0,2,0,0
51,TenTon01,5,14,14,14,1,2,0,2,0,0
51,🤡,12,14,14,14,1,2,0,2,0,0
51,ŽŽŽ,8,40,14,14,1,2,0,3,0,0
51,たこ,11,14,14,14,1,2,0,2,0,0
51,Fantasmita,9,15,14,14,1,2,0,2,0,0
51,Easycake001,7,18,14,14,1,2,0,2,0,0
51,sczi*987,5,14,14,14,1,2,0,2,0,0
51,[F2P] notfreedan NCP,12,14,14,14,1,2,0,2,0,0
51,blacksad,11,14,14,14,1,2,0,2,0,0
51,LetMeLive,12,19,14,14,1,2,0,2,0,0
51,ScrMcDuck,12,14,14,14,1,2,0,2,0,0
51,自然,12,30,14,14,1,2,0,3,0,0
51,robotdeniro,5,14,14,14,1,2,0,2,0,0
51,Jimmer,10,14,14,14,1,2,0,2,0,0
51,Jayshawn,8,14,14,14,1,2,0,2,0,0
51,Paradime,9,24,14,14,1,2,0,2,0,0
51,finansisn,8,14,14,14,1,2,0,2,0,0
51,Androssi,8,14,14,14,1,2,0,2,0,0
51,SpaceCoastKook,12,18,14,14,1,2,0,2,0,0
51,other,3,38,16,13,2,1,0,2,0,0
51,Deil713009,5,14,13,13,2,1,0,1,0,0
51,Gordon Shumway,1,14,14,13,2,1,0,1,0,0
51,Ax-S.C.B,3,16,14,13,2,1,0,1,0,0
51,coinage,8,14,13,13,2,1,0,1,0,0
51,gesscuuu,4,16,14,13,2,1,0,1,0,0
51,dad,6,16,13,13,2,1,0,1,0,0
51,Cryptolemon,12,13,13,13,2,1,0,1,0,0
51,reachy,9,13,13,13,2,1,0,1,0,0
51,sadisteck,11,13,13,13,2,1,0,1,0,0
51,Tiannizu,11,25,13,13,2,1,0,1,0,0
51,Inneluki,1,37,16,13,2,1,0,2,0,0
51,sensebe,11,48,13,13,2,1,0,2,0,0
51,Krumpy Lumpkins,12,60,13,13,2,1,0,2,0,0
51,Shibanqk,11,19,13,13,2,1,0,1,0,0
51,TheModestThief,2,47,16,13,2,1,0,2,0,0
51,Wasper,12,23,13,13,2,1,0,1,0,0
51,Johnny Janglez,3,22,17,13,2,1,0,1,0,0
51,LCHammer,12,22,13,13,2,1,0,1,0,0
51,WhiteWhale,6,16,13,13,2,1,0,1,0,0
51,Cerne,12,13,13,13,2,1,0,1,0,0
51,Syrup17,5,18,13,13,2,1,0,1,0,0
51,immaterial,5,20,13,13,2,1,0,1,0,0
51,ダラスバー,11,13,13,13,2,1,0,1,0,0
51,sigfriedCrypto,9,51,13,13,2,1,0,2,0,0
51,RedDeath,10,13,13,13,2,1,0,1,0,0
51,Oblongfitzoblong,11,17,13,13,2,1,0,1,0,0
51,rikuchof63,1,26,15,13,2,1,0,1,0,0
51,Sir Ike Moesha Broflovski,9,30,13,13,2,1,0,2,0,0
51,Chaos23,1,21,21,13,2,1,0,1,0,0
51,korencio,1,13,13,13,2,1,0,1,0,0
51,luthfi9999,3,13,13,13,2,1,0,1,0,0
51,dmitrij93,1,34,19,13,2,1,0,2,0,0
51,TheFireWithin,12,13,13,13,2,1,0,1,0,0
51,DiegoFerreL,12,30,13,13,2,1,0,2,0,0
51,[Mythic] Ducky,12,13,13,13,2,1,0,1,0,0
51,Aragon,12,31,13,13,2,1,0,2,0,0
51,Boganis,3,14,14,13,2,1,0,1,0,0
51,Ungulate-NCP,12,14,13,13,2,1,0,1,0,0
51,PastRelyks,1,16,16,13,2,1,0,1,0,0
51,Thirdman,8,13,13,13,2,1,0,1,0,0
51,Odaja,7,14,13,13,2,1,0,1,0,0
51,cjmoles,8,13,13,13,2,1,0,1,0,0
51,tygerson2,3,13,13,13,2,1,0,1,0,0
51,Makakka,10,13,12,12,2,1,0,1,0,0
51,Yell,5,14,12,12,2,1,0,1,0,0
51,gantarisa,7,12,12,12,2,1,0,1,0,0
51,²³,11,12,12,12,2,1,0,1,0,0
51,LegndRicky,8,15,12,12,2,1,0,1,0,0
51,kigawakunto27,12,12,12,12,2,1,0,1,0,0
51,Lucky,6,12,12,12,2,1,0,1,0,0
51,idncrypto67,9,37,12,12,2,1,0,2,0,0
51,LatteBicDic,6,12,12,12,2,1,0,1,0,0
51,ss,5,12,12,12,2,1,0,1,0,0
51,mahkoyu5143,11,12,12,12,2,1,0,1,0,0
51,Intergalactic,7,17,12,12,2,1,0,1,0,0
51,TheYndys,6,15,12,12,2,1,0,1,0,0
51,[Mythic] Dragonstorm,12,30,12,12,2,1,0,2,0,0
51,Longy,12,30,12,12,2,1,0,2,0,0
51,bs241111,7,15,12,12,2,1,0,1,0,0
51,PlinytheEther,10,12,12,12,2,1,0,1,0,0
51,Alice_Unchained,3,31,12,12,2,1,0,2,0,0
51,(｡▼皿▼),7,19,12,12,2,1,0,1,0,0
51,popovanton89,12,12,12,12,2,1,0,1,0,0
51,_fireartist,8,12,12,12,2,1,0,1,0,0
51,CaptainCola,7,13,12,12,2,1,0,1,0,0
51,OPEPEN-MAN,9,12,12,12,2,1,0,1,0,0
51,crypteco,1,12,12,12,2,1,0,1,0,0
51,Rugdealer,4,12,12,12,2,1,0,1,0,0
51,Chain0tater,7,31,12,12,2,1,0,2,0,0
51,SolarMkd,12,31,12,12,2,1,0,2,0,0
51,Rahzan89,2,12,12,12,2,1,0,1,0,0
51,ferzspb,10,36,12,12,2,1,0,2,0,0
51,а,9,23,12,12,2,1,0,1,0,0
51,skyenya1,8,14,12,12,2,1,0,1,0,0
51,GUDecks.com,12,16,12,12,2,1,0,1,0,0
51,Yogalholic,6,14,12,12,2,1,0,1,0,0
51,Salernik,11,12,12,12,2,1,0,1,0,0
51,Xile1985,7,16,12,12,2,1,0,1,0,0
51,rsrckt95,1,12,12,12,2,1,0,1,0,0
51,cryptoznewb,12,13,12,12,2,1,0,1,0,0
51,cistrans,6,15,12,12,2,1,0,1,0,0
51,suplantox,5,15,12,12,2,1,0,1,0,0
51,NAGIBATOR,7,11,11,11,2,1,0,1,0,0
51,agrimony,8,11,11,11,2,1,0,1,0,0
51,komatsuna,1,25,11,11,2,1,0,1,0,0
51,Jsteezy,12,11,11,11,2,1,0,1,0,0
51,Naaaaaaaaaas,10,11,11,11,2,1,0,1,0,0
51,DaCatzMeow,9,12,11,11,2,1,0,1,0,0
51,Swen 122,8,12,11,11,2,1,0,1,0,0
51,Nanich,7,11,11,11,2,1,0,1,0,0
51,CastorPollux,12,13,11,11,2,1,0,1,0,0
51,entling,8,11,11,11,2,1,0,1,0,0
51,Syonidehyde1165,4,16,11,11,2,1,0,1,0,0
51,OMNIPOTENT,3,36,11,11,2,1,0,2,0,0
51,LordDarktempler,11,11,11,11,2,1,0,1,0,0
51,Lord of Crypto,8,11,11,11,2,1,0,1,0,0
51,Ota Benga,12,61,11,11,2,1,0,2,0,0
51,Þ,12,11,11,11,2,1,0,1,0,0
51,AMRLordCoins,9,12,11,11,2,1,0,1,0,0
51,jcsc1989,9,11,11,11,2,1,0,1,0,0
51,Glamlys,10,11,11,11,2,1,0,1,0,0
51,DisgustingHuman,8,15,11,11,2,1,0,1,0,0
51,KONA|GOLD,12,26,11,11,2,1,0,1,0,0
51,AlienWeapon,8,11,11,11,2,1,0,1,0,0
51,中国鱼,11,11,11,11,2,1,0,1,0,0
51,CannaBiene,10,42,11,11,2,1,0,2,0,0
51,DaikieRa,7,12,11,11,2,1,0,1,0,0
51,hiroppy,10,11,11,11,2,1,0,1,0,0
51,hERoIC15397,12,16,11,11,2,1,0,1,0,0
51,DonnyMacArth,7,32,11,11,2,1,0,2,0,0
51,jackow80,8,38,11,11,2,1,0,2,0,0
51,#WhiteStrike👌🏼,8,13,11,11,2,1,0,1,0,0
51,Mice Elf,8,14,11,11,2,1,0,1,0,0
51,longdarth,11,17,11,11,2,1,0,1,0,0
51,swimlane72,12,15,11,11,2,1,0,1,0,0
51,ZACHISNICE,7,24,11,11,2,1,0,1,0,0
51,JamesPMiller,9,11,11,11,2,1,0,1,0,0
51,Elfo Strego,4,20,11,11,2,1,0,1,0,0
51,BasVanSpanker,12,16,11,11,2,1,0,1,0,0
51,Des Petrovich,8,11,11,11,2,1,0,1,0,0
51,MarcheG,5,11,10,10,3,0,0,0,0,0
51,Damaged Gadget,11,17,10,10,3,0,0,0,0,0
51,El Dios Desencadenado,7,10,10,10,3,0,0,0,0,0
51,Chozami,10,10,10,10,3,0,0,0,0,0
51,Danbog,7,10,10,10,3,0,0,0,0,0
51,shadowstep33,7,10,10,10,3,0,0,0,0,0
51,(*^^*),10,11,10,10,3,0,0,0,0,0
51,ƉƉƉƉ,7,16,10,10,3,0,0,0,0,0
51,mattyesq,10,11,10,10,3,0,0,0,0,0
51,XSITE,12,51,10,10,3,0,0,1,0,0
51,Aadi1912,8,10,10,10,3,0,0,0,0,0
51,ThotHtheAtlanteaN,8,13,10,10,3,0,0,0,0,0
51,force_of_nature,11,10,10,10,3,0,0,0,0,0
51,Ultra-Ice,5,10,10,10,3,0,0,0,0,0
51,tyranoc4,2,10,10,10,3,0,0,0,0,0
51,☺,10,50,10,10,3,0,0,1,0,0
51,Kele,9,15,10,10,3,0,0,0,0,0
51,darkbluechain,9,13,10,10,3,0,0,0,0,0
51,Cryptoflaneur,6,10,10,10,3,0,0,0,0,0
51,verbalshadow,10,10,10,10,3,0,0,0,0,0
51,Inmabeli,8,30,10,10,3,0,0,1,0,0
51,CryptoEEra,10,10,10,10,3,0,0,0,0,0
51,Stede,12,30,10,10,3,0,0,1,0,0
51,coSMIX,9,10,10,10,3,0,0,0,0,0
51,Rvu_Vsem_Duplo,9,10,10,10,3,0,0,0,0,0
51,SheNut,7,14,10,10,3,0,0,0,0,0
51,drchronic01,9,9,9,9,3,0,0,0,0,0
51,Wl4nd3r,1,34,9,9,3,0,0,1,0,0
51,Yanicroft,8,9,9,9,3,0,0,0,0,0
51,Nbecerril53o,5,9,9,9,3,0,0,0,0,0
51,muhammad,8,33,9,9,3,0,0,1,0,0
51,nihao888,8,9,9,9,3,0,0,0,0,0
51,colliseum,12,14,9,9,3,0,0,0,0,0
51,Roberto23,5,17,9,9,3,0,0,0,0,0
51,BoUs1337,1,25,9,9,3,0,0,0,0,0
51,superman313,12,9,9,9,3,0,0,0,0,0
51,emiliomorles,8,9,9,9,3,0,0,0,0,0
51,武将,9,9,9,9,3,0,0,0,0,0
51,Naio,7,9,9,9,3,0,0,0,0,0
51,AdventureStory,6,9,9,9,3,0,0,0,0,0
51,Stoneward,9,9,9,9,3,0,0,0,0,0
51,SHINZON,7,9,9,9,3,0,0,0,0,0
51,Mlexon,5,13,9,9,3,0,0,0,0,0
51,Livingwish,7,9,9,9,3,0,0,0,0,0
51,OverM,11,9,9,9,3,0,0,0,0,0
51,SatChitAnanda,8,28,9,9,3,0,0,0,0,0
51,MagicOwl,7,14,9,9,3,0,0,0,0,0
51,Sergee25,9,9,9,9,3,0,0,0,0,0
51,superslim-NCP,8,9,9,9,3,0,0,0,0,0
51,Unique.Esprit,9,9,9,9,3,0,0,0,0,0
51,kovanova,9,9,9,9,3,0,0,0,0,0
51,Galgorath333,6,9,9,9,3,0,0,0,0,0
51,FSadinoX,4,9,9,9,3,0,0,0,0,0
51,skankhunt42,9,9,9,9,3,0,0,0,0,0
51,Fiofan,9,8,8,8,3,0,0,0,0,0
51,Spartakush,7,8,8,8,3,0,0,0,0,0
51,zkSnarky,3,8,8,8,3,0,0,0,0,0
51,GV,5,8,8,8,3,0,0,0,0,0
51,Lifeboy,9,8,8,8,3,0,0,0,0,0
51,abdumannon,5,10,8,8,3,0,0,0,0,0
51,Hm47goat,5,9,8,8,3,0,0,0,0,0
51,flarbman,4,8,8,8,3,0,0,0,0,0
51,PaxMagnus,11,8,8,8,3,0,0,0,0,0
51,Afronizer,12,8,8,8,3,0,0,0,0,0
51,Yate,7,8,8,8,3,0,0,0,0,0
51,Babooshka,5,10,8,8,3,0,0,0,0,0
51,LucentMeadows,1,8,8,8,3,0,0,0,0,0
51,Genketsu,8,8,8,8,3,0,0,0,0,0
51,Jinimage,5,16,8,8,3,0,0,0,0,0
51,yoshi0911,9,8,8,8,3,0,0,0,0,0
51,espina,5,20,8,8,3,0,0,0,0,0
51,vrjar,1,8,8,8,3,0,0,0,0,0
51,Zhiga,9,8,8,8,3,0,0,0,0,0
51,amin,11,22,8,8,3,0,0,0,0,0
51,hitseven,4,8,8,8,3,0,0,0,0,0
51,HaruhiSuzumiya,8,8,8,8,3,0,0,0,0,0
51,Djonbol1,8,7,7,7,2,0,0,0,0,0
51,eskoll899,4,7,7,7,2,0,0,0,0,0
51,gruberx!,8,7,7,7,2,0,0,0,0,0
51,CorpGravius,10,7,7,7,2,0,0,0,0,0
51,apix3222,7,7,7,7,2,0,0,0,0,0
51,J0kerzWyld,1,7,7,7,2,0,0,0,0,0
51,Noshlarr,9,7,7,7,2,0,0,0,0,0
51,AngryLookingGuy,5,7,7,7,2,0,0,0,0,0
51,Zzodiacz,7,8,7,7,2,0,0,0,0,0
51,DaoChemist,8,7,7,7,2,0,0,0,0,0
51,The Nature Boy,7,7,7,7,2,0,0,0,0,0
51,Ryujin0903,2,7,7,7,2,0,0,0,0,0
51,sinhead83,5,10,7,7,2,0,0,0,0,0
51,juliusnakamoto,6,7,7,7,2,0,0,0,0,0
51,freedom2020,8,7,7,7,2,0,0,0,0,0
51,stfchamp,10,7,7,7,2,0,0,0,0,0
51,GazzaMine,4,7,7,7,2,0,0,0,0,0
51,M.o.D,5,25,7,7,2,0,0,0,0,0
51,rawad878,1,12,7,7,2,0,0,0,0,0
51,.XXOTCXX.,7,17,7,7,2,0,0,0,0,0
51,spapinistarkware,1,7,7,7,2,0,0,0,0,0
51,macek166,3,7,7,7,2,0,0,0,0,0
51,blockchainedpando,7,26,7,7,2,0,0,0,0,0
51,ezimedia,7,7,7,7,2,0,0,0,0,0
51,plaakkon,10,17,7,7,2,0,0,0,0,0
51,ZhiBo,6,9,7,7,2,0,0,0,0,0
51,Konohime,8,6,6,6,2,0,0,0,0,0
51,Yavorlee,4,6,6,6,2,0,0,0,0,0
51,axordahaxor,9,6,6,6,2,0,0,0,0,0
51,Diman007,8,6,6,6,2,0,0,0,0,0
51,pauk6666,7,10,6,6,2,0,0,0,0,0
51,Blackbird,5,31,6,6,2,0,0,1,0,0
51,Gone_2_Deep,1,18,6,6,2,0,0,0,0,0
51,JaffyHigg,3,6,6,6,2,0,0,0,0,0
51,SLIB,9,6,6,6,2,0,0,0,0,0
51,Bobmynobster,5,6,6,6,2,0,0,0,0,0
51,Trollmann,10,6,6,6,2,0,0,0,0,0
51,ra,9,6,6,6,2,0,0,0,0,0
51,DEMON-Dude,8,7,6,6,2,0,0,0,0,0
51,MAC,7,6,6,6,2,0,0,0,0,0
51,ananasbanana,1,6,6,6,2,0,0,0,0,0
51,karlito636,10,6,6,6,2,0,0,0,0,0
51,Μᴇʟᴏɴ,8,6,6,6,2,0,0,0,0,0
51,ILLGLORY,9,42,6,6,2,0,0,1,0,0
51,grega1999,8,6,6,6,2,0,0,0,0,0
51,taurus1983,7,16,6,6,2,0,0,0,0,0
51,Samishii,2,6,6,6,2,0,0,0,0,0
51,Hippietrip,5,10,6,6,2,0,0,0,0,0
51,MadMan,3,6,6,6,2,0,0,0,0,0
51,trance,3,6,6,6,2,0,0,0,0,0
51,tactics1,9,6,6,6,2,0,0,0,0,0
51,trollshock,8,6,6,6,2,0,0,0,0,0
51,sevenjay,5,6,6,6,2,0,0,0,0,0
51,PeterD,9,5,5,5,2,0,0,0,0,0
51,Ms. Tanith,5,5,5,5,2,0,0,0,0,0
51,StardewLover,7,5,5,5,2,0,0,0,0,0
51,Mrchains,2,5,5,5,2,0,0,0,0,0
51,josephku,7,5,5,5,2,0,0,0,0,0
51,maelstrom4880,4,5,5,5,2,0,0,0,0,0
51,chilltown,7,5,5,5,2,0,0,0,0,0
51,Demon Party,4,5,5,5,2,0,0,0,0,0
51,$,10,45,5,5,2,0,0,1,0,0
51,xvaimC70,5,5,5,5,2,0,0,0,0,0
51,BORAICHO,2,20,5,5,2,0,0,0,0,0
51,Tribone,7,5,5,5,2,0,0,0,0,0
51,Camypau-,8,5,5,5,2,0,0,0,0,0
51,DemonJnr,8,5,5,5,2,0,0,0,0,0
51,serthan,8,5,5,5,2,0,0,0,0,0
51,radi,12,5,5,5,2,0,0,0,0,0
51,el_oaxaco,4,5,5,5,2,0,0,0,0,0
51,Nininiao,12,5,5,5,2,0,0,0,0,0
51,trent_reznor,9,5,5,5,2,0,0,0,0,0
51,iflion,7,5,5,5,2,0,0,0,0,0
51,Rievserg,8,5,5,5,2,0,0,0,0,0
51,ohDeerGod,1,5,5,5,2,0,0,0,0,0
51,Sialla24,1,5,5,5,2,0,0,0,0,0
51,scottscabbers95,1,5,5,5,2,0,0,0,0,0
51,Slippy P,9,5,5,5,2,0,0,0,0,0
51,Q,7,5,5,5,2,0,0,0,0,0
51,Cruel Vegan,1,5,5,5,2,0,0,0,0,0
51,Noses796,5,29,4,4,1,0,0,0,0,0
51,JMoney,11,4,4,4,1,0,0,0,0,0
51,JadedLight,5,4,4,4,1,0,0,0,0,0
51,EL CAPITOCH,1,4,4,4,1,0,0,0,0,0
51,Nyktimené,7,4,4,4,1,0,0,0,0,0
51,isaacfufu,9,4,4,4,1,0,0,0,0,0
51,WOLFPT,5,4,4,4,1,0,0,0,0,0
51,ConflictedNewton,11,4,4,4,1,0,0,0,0,0
51,masanari,7,4,4,4,1,0,0,0,0,0
51,@$$,10,4,4,4,1,0,0,0,0,0
51,intacrypt,6,4,4,4,1,0,0,0,0,0
51,MaestroGR,8,4,4,4,1,0,0,0,0,0
51,Progressive,1,4,4,4,1,0,0,0,0,0
51,psychofking,1,4,4,4,1,0,0,0,0,0
51,Jdeluxe,7,4,4,4,1,0,0,0,0,0
51,goldemon,9,4,4,4,1,0,0,0,0,0
51,Boseafus,1,4,4,4,1,0,0,0,0,0
51,dalahad,10,4,4,4,1,0,0,0,0,0
51,iluvsheep,8,4,4,4,1,0,0,0,0,0
51,quantumgamble,10,4,4,4,1,0,0,0,0,0
51,Kolledaboss,8,4,4,4,1,0,0,0,0,0
51,PuzzleMazl,9,4,4,4,1,0,0,0,0,0
51,forest gate,2,4,4,4,1,0,0,0,0,0
51,WildCard0341,8,4,4,4,1,0,0,0,0,0
51,SpicoliAndreti,6,4,4,4,1,0,0,0,0,0
51,turgor777,7,4,4,4,1,0,0,0,0,0
51,fuck_all,7,4,4,4,1,0,0,0,0,0
51,shadowstrike42,7,4,4,4,1,0,0,0,0,0
51,strange,5,4,4,4,1,0,0,0,0,0
51,blockchaingames.fun,9,4,4,4,1,0,0,0,0,0
51,Zerxus,4,4,4,4,1,0,0,0,0,0
51,monkey,8,4,4,4,1,0,0,0,0,0
51,Bielobog,8,4,4,4,1,0,0,0,0,0
51,TerribleJIexa,8,4,4,4,1,0,0,0,0,0
51,DPRoberts99,7,4,4,4,1,0,0,0,0,0
51,PrinceH,7,4,4,4,1,0,0,0,0,0
51,bang39,9,4,4,4,1,0,0,0,0,0
51,aeaon,5,4,4,4,1,0,0,0,0,0
51,yo.achim,7,4,4,4,1,0,0,0,0,0
51,FlexyFlexy,8,3,3,3,1,0,0,0,0,0
51,BlocksUnchained,11,3,3,3,1,0,0,0,0,0
51,Ragnor8476,9,3,3,3,1,0,0,0,0,0
51,cambocleve,9,3,3,3,1,0,0,0,0,0
51,Sorpiondude,4,3,3,3,1,0,0,0,0,0
51,restb777,8,3,3,3,1,0,0,0,0,0
51,daviroz,1,3,3,3,1,0,0,0,0,0
51,Rakalel,7,3,3,3,1,0,0,0,0,0
51,Denker,9,3,3,3,1,0,0,0,0,0
51,TriggerHappy,1,3,3,3,1,0,0,0,0,0
51,bartek35,2,3,3,3,1,0,0,0,0,0
51,Gabriel,9,3,3,3,1,0,0,0,0,0
51,[Twitch4Fun] Kaeserotor,12,3,3,3,1,0,0,0,0,0
51,Olymp,7,3,3,3,1,0,0,0,0,0
51,Acecompac,6,3,3,3,1,0,0,0,0,0
51,noa2015,7,3,3,3,1,0,0,0,0,0
51,CryptoHype,4,3,3,3,1,0,0,0,0,0
51,trakzenator,7,3,3,3,1,0,0,0,0,0
51,wingwolf,1,3,3,3,1,0,0,0,0,0
51,DeMoN666,10,3,3,3,1,0,0,0,0,0
51,Overlordtrial,5,3,3,3,1,0,0,0,0,0
51,Fettsauchris,1,3,3,3,1,0,0,0,0,0
51,Yurij,8,3,3,3,1,0,0,0,0,0
51,Justinkase,7,3,3,3,1,0,0,0,0,0
51,ToggleBlade,1,3,3,3,1,0,0,0,0,0
51,blue&white,5,3,3,3,1,0,0,0,0,0
51,chickpeaces,1,3,3,3,1,0,0,0,0,0
51,-=ÐDrîve~ßyE€=-,5,3,3,3,1,0,0,0,0,0
51,Harmike6,1,3,3,3,1,0,0,0,0,0
51,今,12,3,3,3,1,0,0,0,0,0
51,mglmori,9,3,3,3,1,0,0,0,0,0
51,screenlag,1,3,3,3,1,0,0,0,0,0
51,bwindi,6,3,3,3,1,0,0,0,0,0
51,davirozz,8,3,3,3,1,0,0,0,0,0
51,Cryptotastic,12,3,3,3,1,0,0,0,0,0
51,Edgecaser,9,2,2,2,0,0,0,0,0,0
51,ill_coin,6,2,2,2,0,0,0,0,0,0
51,PropanePanda,3,2,2,2,0,0,0,0,0,0
51,Diablokgb,9,2,2,2,0,0,0,0,0,0
51,TrungGau,3,2,2,2,0,0,0,0,0,0
51,ronink77,4,2,2,2,0,0,0,0,0,0
51,Avatar1188,4,2,2,2,0,0,0,0,0,0
51,crystalhuman,6,2,2,2,0,0,0,0,0,0
51,お金猫,10,2,2,2,0,0,0,0,0,0
51,stachu,8,2,2,2,0,0,0,0,0,0
51,AmericanIcarus,8,2,2,2,0,0,0,0,0,0
51,ghostofmerln,9,2,2,2,0,0,0,0,0,0
51,BuidloBagins,10,2,2,2,0,0,0,0,0,0
51,gu.cards,8,2,2,2,0,0,0,0,0,0
51,EdOnCouch,11,2,2,2,0,0,0,0,0,0
51,[Mythic] Freedan Fan,12,2,2,2,0,0,0,0,0,0
51,Reaperkiller,4,2,2,2,0,0,0,0,0,0
51,NoblusMass,5,2,2,2,0,0,0,0,0,0
51,Totemsh,9,2,2,2,0,0,0,0,0,0
51,god of ganja,7,2,2,2,0,0,0,0,0,0
51,gothmaug,10,2,2,2,0,0,0,0,0,0
51,Ainokami,8,2,2,2,0,0,0,0,0,0
51,BlueBeard,3,2,2,2,0,0,0,0,0,0
51,willtheitking,5,2,2,2,0,0,0,0,0,0
51,ShadedGlade,3,2,2,2,0,0,0,0,0,0
51,Blackhalo,4,2,2,2,0,0,0,0,0,0
51,Kojiroad,5,2,2,2,0,0,0,0,0,0
51,Akramoff,6,2,2,2,0,0,0,0,0,0
51,Jahura_Banu,8,2,2,2,0,0,0,0,0,0
51,Yostari,8,2,2,2,0,0,0,0,0,0
51,Mojo,6,2,2,2,0,0,0,0,0,0
51,Cerberus,8,2,2,2,0,0,0,0,0,0
51,HeresYourTollTroll,10,2,2,2,0,0,0,0,0,0
51,NessUnchained,1,2,2,2,0,0,0,0,0,0
51,GOD OF CATS 😻,8,2,2,2,0,0,0,0,0,0
51,vexbasquae,1,2,2,2,0,0,0,0,0,0
51,Mephisto,1,2,2,2,0,0,0,0,0,0
51,shenky95,1,2,2,2,0,0,0,0,0,0
51,Ryl0Xx,1,2,2,2,0,0,0,0,0,0
51,Minimunzter,1,2,2,2,0,0,0,0,0,0
51,kolia3616,7,2,2,2,0,0,0,0,0,0
51,romansito,4,2,2,2,0,0,0,0,0,0
51,seedlingqueen,1,2,2,2,0,0,0,0,0,0
51,Varick,9,2,2,2,0,0,0,0,0,0
51,Noice,8,2,2,2,0,0,0,0,0,0
51,Goder,7,2,2,2,0,0,0,0,0,0
51,Drunkigan,4,2,2,2,0,0,0,0,0,0
51,Jin Jazama,3,2,2,2,0,0,0,0,0,0
51,Ninjaturtle,8,2,2,2,0,0,0,0,0,0
51,~o0GiN0o~,8,2,2,2,0,0,0,0,0,0
51,bouncetree,7,2,2,2,0,0,0,0,0,0
51,Lazy Panda,1,2,2,2,0,0,0,0,0,0
51,Deadmarsh,7,2,2,2,0,0,0,0,0,0
51,BTGMoose,1,2,2,2,0,0,0,0,0,0
51,skabber,10,1,1,1,0,0,0,0,0,0
51,Helga999,8,1,1,1,0,0,0,0,0,0
51,Sephiroth,1,1,1,1,0,0,0,0,0,0
51,Lollerskates,8,1,1,1,0,0,0,0,0,0
51,Zathura45,7,1,1,1,0,0,0,0,0,0
51,Ezoss_in_space,1,1,1,1,0,0,0,0,0,0
51,Blank Never Loses,11,1,1,1,0,0,0,0,0,0
51,Edmondous,4,1,1,1,0,0,0,0,0,0
51,ReportMe,7,1,1,1,0,0,0,0,0,0
51,Imperator Arcadus,3,1,1,1,0,0,0,0,0,0
51,Watemper,8,1,1,1,0,0,0,0,0,0
51,Kronos,11,1,1,1,0,0,0,0,0,0
51,prism610,1,1,1,1,0,0,0,0,0,0
51,furryballs,8,1,1,1,0,0,0,0,0,0
51,Lokiness,1,1,1,1,0,0,0,0,0,0
51,gusarcek,1,1,1,1,0,0,0,0,0,0
51,Achilles64,3,1,1,1,0,0,0,0,0,0
51,Ruf,7,1,1,1,0,0,0,0,0,0
51,o2Beast,1,1,1,1,0,0,0,0,0,0
51,FreeWilly,1,1,1,1,0,0,0,0,0,0
51,Koyaanisqatsi,7,1,1,1,0,0,0,0,0,0
51,Lighon,6,1,1,1,0,0,0,0,0,0
51,ProtegeAA,6,1,1,1,0,0,0,0,0,0
51,AlanSteve,3,1,1,1,0,0,0,0,0,0
51,menelvagor,12,1,1,1,0,0,0,0,0,0
51,Alpha_Adz,7,1,1,1,0,0,0,0,0,0
51,Akiro,7,1,1,1,0,0,0,0,0,0
51,bobcryptolover,6,1,1,1,0,0,0,0,0,0
51,shiskebab10,5,1,1,1,0,0,0,0,0,0
51,Hastal Havista,6,1,1,1,0,0,0,0,0,0
51,Vaffelei,1,1,1,1,0,0,0,0,0,0
51,LittleMeTime,8,1,1,1,0,0,0,0,0,0
51,naiden39,5,1,1,1,0,0,0,0,0,0
51,Wazza,2,1,1,1,0,0,0,0,0,0
51,blondin,6,1,1,1,0,0,0,0,0,0
51,Venomarix,1,1,1,1,0,0,0,0,0,0
51,Allaunthefox,3,1,1,1,0,0,0,0,0,0
51,Cdg,4,1,1,1,0,0,0,0,0,0
51,blackford2,1,1,1,1,0,0,0,0,0,0
51,Hedeslag,4,1,1,1,0,0,0,0,0,0
51,crypto_bovine,6,1,1,1,0,0,0,0,0,0
51,QuinnBear,10,1,1,1,0,0,0,0,0,0
51,ThatCrooks,4,1,1,1,0,0,0,0,0,0
51,Barbajay,1,1,1,1,0,0,0,0,0,0
51,spacepirate,9,1,1,1,0,0,0,0,0,0
51,oniru,7,1,1,1,0,0,0,0,0,0
51,KrypTonik,7,1,1,1,0,0,0,0,0,0
51,DiarrheaTsunami,2,1,1,1,0,0,0,0,0,0
51,mike0182,10,1,1,1,0,0,0,0,0,0
51,format c:\,6,1,1,1,0,0,0,0,0,0
51,LandynsCryptoz,1,1,1,1,0,0,0,0,0,0
51,Xiato,7,1,1,1,0,0,0,0,0,0
51,Cesarius,1,1,1,1,0,0,0,0,0,0
51,cobraKing,1,1,1,1,0,0,0,0,0,0
51,ReidulousKane,5,1,1,1,0,0,0,0,0,0
51,FraudulentFree,2,1,1,1,0,0,0,0,0,0
51,The Cleric,5,1,1,1,0,0,0,0,0,0
51,homline,7,1,1,1,0,0,0,0,0,0
51,PeriodBloodMouthWash,7,1,1,1,0,0,0,0,0,0
51,delphinny,1,1,1,1,0,0,0,0,0,0
51,Ponysibirsk,1,1,1,1,0,0,0,0,0,0
51,Zulhakar,9,1,1,1,0,0,0,0,0,0
51,onlys,6,1,1,1,0,0,0,0,0,0
51,Dinobravo,1,1,1,1,0,0,0,0,0,0
51,SnoozeDragon,6,1,1,1,0,0,0,0,0,0
51,Longsan1,1,1,1,1,0,0,0,0,0,0
51,manckys1126,8,1,1,1,0,0,0,0,0,0
51,BalacX,1,1,1,1,0,0,0,0,0,0
51,BohemianBrewer,1,1,1,1,0,0,0,0,0,0
51,N0fx,7,1,1,1,0,0,0,0,0,0
51,WARRgod1,1,1,1,1,0,0,0,0,0,0
51,Soothio1,4,1,1,1,0,0,0,0,0,0
51,marukaziri,8,1,1,1,0,0,0,0,0,0
51,BosluisTepel,1,1,1,1,0,0,0,0,0,0
51,Dancing_shep,8,1,1,1,0,0,0,0,0,0
51,shock,10,1,1,1,0,0,0,0,0,0
51,HappyMan811,4,1,1,1,0,0,0,0,0,0
51,RCP10000,1,1,1,1,0,0,0,0,0,0
51,fd204,10,1,1,1,0,0,0,0,0,0
51,Savant.Specter,12,1,1,1,0,0,0,0,0,0
51,GL1TCH,8,1,1,1,0,0,0,0,0,0
51,JimmyBeaver,8,1,1,1,0,0,0,0,0,0
51,dr-nuker,4,1,1,1,0,0,0,0,0,0
51,Staff Phyre,4,1,1,1,0,0,0,0,0,0
51,Bakura10,4,1,1,1,0,0,0,0,0,0
51,SneezyDwarf,12,1,1,1,0,0,0,0,0,0
51,LuckyGuy,6,1,1,1,0,0,0,0,0,0
51,Drjajuan,1,1,1,1,0,0,0,0,0,0
51,remiranda28,3,1,1,1,0,0,0,0,0,0
51,SteelRat,11,1,1,1,0,0,0,0,0,0
