Week Number,Username,Rank,Wins,Wins in First 25,Counted Wins,Core Rare,Core Epic,Core Legendary,Trial Rare,Trial Epic,Trial Legendary
51,Wilderness,12,23,22,22,0,0,3,0,0,2
51,Mirage88,12,87,22,22,0,0,3,1,0,2
51,„ÅÇ,12,22,22,22,0,0,3,0,0,2
51,Demons,11,58,21,21,0,0,2,1,2,1
51,Ayo,12,21,21,21,0,0,2,0,2,1
51,TheHassy,12,21,21,21,0,0,2,0,2,1
51,Resonator,12,20,20,20,0,1,1,1,1,1
51,Gandalf,12,42,20,20,0,1,1,2,1,1
51,Nonchan,12,32,20,20,0,1,1,2,1,1
51,·ºåœÅŒ∑œÇ,12,20,20,20,0,1,1,1,1,1
51,‚†Är3hab,12,20,20,20,0,1,1,1,1,1
51,Fantomasek,12,38,20,20,0,1,1,2,1,1
51,Wezz,12,30,19,19,0,2,1,1,2,0
51,V-Hirvi,12,31,19,19,0,2,1,1,2,0
51,[Pulse] Aldoc,11,19,19,19,0,2,1,0,2,0
51,SniffOnMe,12,21,19,19,0,2,1,0,2,0
51,[tst]cautionfun,12,30,19,19,0,2,1,1,2,0
51,someonesomeone,12,19,19,19,0,2,1,0,2,0
51,–Ω–æ–≥–æ–æ–Ω–∑–∞–ª—É—É,12,19,19,19,0,2,1,0,2,0
51,Ares,9,35,18,18,0,3,0,1,2,0
51,[tst]themudman,12,48,18,18,0,3,0,1,2,0
51,Veloth,12,22,18,18,0,3,0,0,2,0
51,trilldebeest,9,18,18,18,0,3,0,0,2,0
51,roytutu,11,30,18,18,0,3,0,1,2,0
51,flex13,12,30,18,18,0,3,0,1,2,0
51,Pidda1994,8,17,17,17,1,2,0,0,2,0
51,Cindy,9,17,17,17,1,2,0,0,2,0
51,CryptoJoueur,8,19,19,17,1,2,0,0,2,0
51,"Êº¢Â≠ó, Ê±âÂ≠ó",8,18,18,17,1,2,0,0,2,0
51,Moonpig,10,18,17,17,1,2,0,0,2,0
51,X √Ü A-12,8,20,18,17,1,2,0,0,2,0
51,cholzgu,8,35,17,17,1,2,0,1,2,0
51,ZEALOT,8,17,17,17,1,2,0,0,2,0
51,üòé,12,17,17,17,1,2,0,0,2,0
51,raz0r,8,18,18,17,1,2,0,0,2,0
51,[F2P] Mythic Unchain NCP,9,59,17,17,1,2,0,1,2,0
51,Charles Utkins,12,18,17,17,1,2,0,0,2,0
51,Kinch,11,26,17,17,1,2,0,0,2,0
51,PleaseDontRope,8,17,17,17,1,2,0,0,2,0
51,ƒõƒùƒù∆ë∆°∆°∆¥∆°≈Ø≈àƒù,8,18,17,17,1,2,0,0,2,0
51,Xpwao,8,30,17,17,1,2,0,1,2,0
51,sparky,10,57,17,17,1,2,0,1,2,0
51,Hellicon,9,18,17,17,1,2,0,0,2,0
51,[tst]bonkthatbutt,12,18,17,17,1,2,0,0,2,0
51,zlaxor,12,20,17,17,1,2,0,0,2,0
51,CopperPitch,12,20,17,17,1,2,0,0,2,0
51,„Éô„ÉÉ„ÇØ,11,30,17,17,1,2,0,1,2,0
51,Surface2AirMissle,9,17,17,17,1,2,0,0,2,0
51,ZENIMOON,10,17,16,16,0,3,0,1,1,0
51,Tripel_Ix,7,17,17,16,0,3,0,1,1,0
51,Bumboklaat,8,16,16,16,0,3,0,1,1,0
51,Apollo,12,22,16,16,0,3,0,1,1,0
51,Excidium,8,16,16,16,0,3,0,1,1,0
51,„Ç∂„Éè„Éº„Éâ,12,30,16,16,0,3,0,2,1,0
51,gohm,9,16,16,16,0,3,0,1,1,0
51,[tst] Unchained Fan,12,16,16,16,0,3,0,1,1,0
51,Slackov,11,17,16,16,0,3,0,1,1,0
51,ValBelair,8,16,16,16,0,3,0,1,1,0
51,‰∏âÂçÅÂÖ´,12,16,16,16,0,3,0,1,1,0
51,Ckastigador,12,30,16,16,0,3,0,2,1,0
51,Oxn,8,21,16,16,0,3,0,1,1,0
51,[Mythic] revan,12,17,16,16,0,3,0,1,1,0
51,iluvbitcoins,7,17,17,16,0,3,0,1,1,0
51,TheRabbitRun,7,18,17,16,0,3,0,1,1,0
51,rare,12,17,16,16,0,3,0,1,1,0
51,TheNachoSamurai,12,37,16,16,0,3,0,2,1,0
51,wic3x5,7,17,16,16,0,3,0,1,1,0
51,Starry Ninja,7,16,16,16,0,3,0,1,1,0
51,densdensdens,8,16,16,16,0,3,0,1,1,0
51,Sir Tango,12,17,16,16,0,3,0,1,1,0
51,BlackMagic,12,33,16,16,0,3,0,2,1,0
51,slivenec,7,19,18,16,0,3,0,1,1,0
51,KLMJ,8,16,16,16,0,3,0,1,1,0
51,RavenGuard,12,16,16,16,0,3,0,1,1,0
51,–ì—Ä—É–º–≤–æ–ª,12,16,16,16,0,3,0,1,1,0
51,◊©◊ú◊ô◊û◊ñ◊ú,12,16,16,16,0,3,0,1,1,0
51,[Taiga] VOLK,11,19,16,16,0,3,0,1,1,0
51,VonMises,11,27,16,16,0,3,0,1,1,0
51,DrippSinatra,8,23,16,16,0,3,0,1,1,0
51,MustangKirby,8,34,16,16,0,3,0,2,1,0
51,Lysander,12,31,16,16,0,3,0,2,1,0
51,Scuffle,12,16,16,16,0,3,0,1,1,0
51,‰∏ÉÊúàÂçÅÊó•,12,16,16,16,0,3,0,1,1,0
51,allstarrunner,6,16,16,15,1,2,0,2,0,0
51,Akilsainon,11,15,15,15,1,2,0,2,0,0
51,Bozie,5,20,15,15,1,2,0,2,0,0
51,[F2P]BonkNCP,12,15,15,15,1,2,0,2,0,0
51,GodhookzTTV,5,73,15,15,1,2,0,3,0,0
51,PooNaniHunter,8,22,15,15,1,2,0,2,0,0
51,dobindubas,6,16,16,15,1,2,0,2,0,0
51,Cananopie,8,18,15,15,1,2,0,2,0,0
51,Drummerboyj,10,15,15,15,1,2,0,2,0,0
51,„Ç¢„Éà„É™,12,15,15,15,1,2,0,2,0,0
51,Prince,9,19,15,15,1,2,0,2,0,0
51,[Mythic] GGian,12,31,15,15,1,2,0,3,0,0
51,Waikikamukau,11,23,15,15,1,2,0,2,0,0
51,freaky44,8,15,15,15,1,2,0,2,0,0
51,cicada,8,33,15,15,1,2,0,3,0,0
51,AwesomeSparkly,8,15,15,15,1,2,0,2,0,0
51,Returner,10,15,15,15,1,2,0,2,0,0
51,F√´anor,5,49,17,15,1,2,0,3,0,0
51,Elyon,11,23,15,15,1,2,0,2,0,0
51,‚úú,12,16,15,15,1,2,0,2,0,0
51,Dave,9,39,15,15,1,2,0,3,0,0
51,Sameersh,5,22,15,15,1,2,0,2,0,0
51,JMa14,5,20,16,15,1,2,0,2,0,0
51,theboogyman,8,17,15,15,1,2,0,2,0,0
51,Resplandor,9,18,15,15,1,2,0,2,0,0
51,‚åÄ,6,16,16,15,1,2,0,2,0,0
51,Kolesiff,12,23,14,14,1,2,0,2,0,0
51,ulcus,7,38,14,14,1,2,0,3,0,0
51,Saint777,12,14,14,14,1,2,0,2,0,0
51,TREY,12,15,14,14,1,2,0,2,0,0
51,Dactar,8,14,14,14,1,2,0,2,0,0
51,Kietelaar,6,30,14,14,1,2,0,3,0,0
51,rl958,12,14,14,14,1,2,0,2,0,0
51,superslim,8,28,14,14,1,2,0,2,0,0
51,jnew00,6,14,14,14,1,2,0,2,0,0
51,shaleby_,5,14,14,14,1,2,0,2,0,0
51,Pesaac2020,8,25,14,14,1,2,0,2,0,0
51,È≠îjunior,12,15,14,14,1,2,0,2,0,0
51,0x7d31apuz,9,30,14,14,1,2,0,3,0,0
51,carebear,12,14,14,14,1,2,0,2,0,0
51,vogimania,8,19,14,14,1,2,0,2,0,0
51,Hypnotic,8,14,14,14,1,2,0,2,0,0
51,MasterMirror,9,15,14,14,1,2,0,2,0,0
51,smirnawf,9,14,14,14,1,2,0,2,0,0
51,inklic,6,31,14,14,1,2,0,3,0,0
51,GodMode,7,14,14,14,1,2,0,2,0,0
51,„Ç≠„ÉÑ„Éç„ÅÆÂè´„Å≥,12,14,14,14,1,2,0,2,0,0
51,doudou2201,8,17,14,14,1,2,0,2,0,0
51,ProAndyKiller,8,14,14,14,1,2,0,2,0,0
51,noteboom,12,14,14,14,1,2,0,2,0,0
51,TenTon01,5,14,14,14,1,2,0,2,0,0
51,ü§°,12,14,14,14,1,2,0,2,0,0
51,≈Ω≈Ω≈Ω,8,40,14,14,1,2,0,3,0,0
51,„Åü„Åì,11,14,14,14,1,2,0,2,0,0
51,Fantasmita,9,15,14,14,1,2,0,2,0,0
51,Easycake001,7,18,14,14,1,2,0,2,0,0
51,sczi*987,5,14,14,14,1,2,0,2,0,0
51,[F2P] notfreedan NCP,12,14,14,14,1,2,0,2,0,0
51,blacksad,11,14,14,14,1,2,0,2,0,0
51,LetMeLive,12,19,14,14,1,2,0,2,0,0
51,ScrMcDuck,12,14,14,14,1,2,0,2,0,0
51,Ëá™ÁÑ∂,12,30,14,14,1,2,0,3,0,0
51,robotdeniro,5,14,14,14,1,2,0,2,0,0
51,Jimmer,10,14,14,14,1,2,0,2,0,0
51,Jayshawn,8,14,14,14,1,2,0,2,0,0
51,Paradime,9,24,14,14,1,2,0,2,0,0
51,finansisn,8,14,14,14,1,2,0,2,0,0
51,Androssi,8,14,14,14,1,2,0,2,0,0
51,SpaceCoastKook,12,18,14,14,1,2,0,2,0,0
51,other,3,38,16,13,2,1,0,2,0,0
51,Deil713009,5,14,13,13,2,1,0,1,0,0
51,Gordon Shumway,1,14,14,13,2,1,0,1,0,0
51,Ax-S.C.B,3,16,14,13,2,1,0,1,0,0
51,coinage,8,14,13,13,2,1,0,1,0,0
51,gesscuuu,4,16,14,13,2,1,0,1,0,0
51,dad,6,16,13,13,2,1,0,1,0,0
51,Cryptolemon,12,13,13,13,2,1,0,1,0,0
51,reachy,9,13,13,13,2,1,0,1,0,0
51,sadisteck,11,13,13,13,2,1,0,1,0,0
51,Tiannizu,11,25,13,13,2,1,0,1,0,0
51,Inneluki,1,37,16,13,2,1,0,2,0,0
51,sensebe,11,48,13,13,2,1,0,2,0,0
51,Krumpy Lumpkins,12,60,13,13,2,1,0,2,0,0
51,Shibanqk,11,19,13,13,2,1,0,1,0,0
51,TheModestThief,2,47,16,13,2,1,0,2,0,0
51,Wasper,12,23,13,13,2,1,0,1,0,0
51,Johnny Janglez,3,22,17,13,2,1,0,1,0,0
51,LCHammer,12,22,13,13,2,1,0,1,0,0
51,WhiteWhale,6,16,13,13,2,1,0,1,0,0
51,Cerne,12,13,13,13,2,1,0,1,0,0
51,Syrup17,5,18,13,13,2,1,0,1,0,0
51,immaterial,5,20,13,13,2,1,0,1,0,0
51,„ÉÄ„É©„Çπ„Éê„Éº,11,13,13,13,2,1,0,1,0,0
51,sigfriedCrypto,9,51,13,13,2,1,0,2,0,0
51,RedDeath,10,13,13,13,2,1,0,1,0,0
51,Oblongfitzoblong,11,17,13,13,2,1,0,1,0,0
51,rikuchof63,1,26,15,13,2,1,0,1,0,0
51,Sir Ike Moesha Broflovski,9,30,13,13,2,1,0,2,0,0
51,Chaos23,1,21,21,13,2,1,0,1,0,0
51,korencio,1,13,13,13,2,1,0,1,0,0
51,luthfi9999,3,13,13,13,2,1,0,1,0,0
51,dmitrij93,1,34,19,13,2,1,0,2,0,0
51,TheFireWithin,12,13,13,13,2,1,0,1,0,0
51,DiegoFerreL,12,30,13,13,2,1,0,2,0,0
51,[Mythic] Ducky,12,13,13,13,2,1,0,1,0,0
51,Aragon,12,31,13,13,2,1,0,2,0,0
51,Boganis,3,14,14,13,2,1,0,1,0,0
51,Ungulate-NCP,12,14,13,13,2,1,0,1,0,0
51,PastRelyks,1,16,16,13,2,1,0,1,0,0
51,Thirdman,8,13,13,13,2,1,0,1,0,0
51,Odaja,7,14,13,13,2,1,0,1,0,0
51,cjmoles,8,13,13,13,2,1,0,1,0,0
51,tygerson2,3,13,13,13,2,1,0,1,0,0
51,Makakka,10,13,12,12,2,1,0,1,0,0
51,Yell,5,14,12,12,2,1,0,1,0,0
51,gantarisa,7,12,12,12,2,1,0,1,0,0
51,¬≤¬≥,11,12,12,12,2,1,0,1,0,0
51,LegndRicky,8,15,12,12,2,1,0,1,0,0
51,kigawakunto27,12,12,12,12,2,1,0,1,0,0
51,Lucky,6,12,12,12,2,1,0,1,0,0
51,idncrypto67,9,37,12,12,2,1,0,2,0,0
51,LatteBicDic,6,12,12,12,2,1,0,1,0,0
51,ss,5,12,12,12,2,1,0,1,0,0
51,mahkoyu5143,11,12,12,12,2,1,0,1,0,0
51,Intergalactic,7,17,12,12,2,1,0,1,0,0
51,TheYndys,6,15,12,12,2,1,0,1,0,0
51,[Mythic] Dragonstorm,12,30,12,12,2,1,0,2,0,0
51,Longy,12,30,12,12,2,1,0,2,0,0
51,bs241111,7,15,12,12,2,1,0,1,0,0
51,PlinytheEther,10,12,12,12,2,1,0,1,0,0
51,Alice_Unchained,3,31,12,12,2,1,0,2,0,0
51,(ÔΩ°‚ñºÁöø‚ñº),7,19,12,12,2,1,0,1,0,0
51,popovanton89,12,12,12,12,2,1,0,1,0,0
51,_fireartist,8,12,12,12,2,1,0,1,0,0
51,CaptainCola,7,13,12,12,2,1,0,1,0,0
51,OPEPEN-MAN,9,12,12,12,2,1,0,1,0,0
51,crypteco,1,12,12,12,2,1,0,1,0,0
51,Rugdealer,4,12,12,12,2,1,0,1,0,0
51,Chain0tater,7,31,12,12,2,1,0,2,0,0
51,SolarMkd,12,31,12,12,2,1,0,2,0,0
51,Rahzan89,2,12,12,12,2,1,0,1,0,0
51,ferzspb,10,36,12,12,2,1,0,2,0,0
51,–∞,9,23,12,12,2,1,0,1,0,0
51,skyenya1,8,14,12,12,2,1,0,1,0,0
51,GUDecks.com,12,16,12,12,2,1,0,1,0,0
51,Yogalholic,6,14,12,12,2,1,0,1,0,0
51,Salernik,11,12,12,12,2,1,0,1,0,0
51,Xile1985,7,16,12,12,2,1,0,1,0,0
51,rsrckt95,1,12,12,12,2,1,0,1,0,0
51,cryptoznewb,12,13,12,12,2,1,0,1,0,0
51,cistrans,6,15,12,12,2,1,0,1,0,0
51,suplantox,5,15,12,12,2,1,0,1,0,0
51,NAGIBATOR,7,11,11,11,2,1,0,1,0,0
51,agrimony,8,11,11,11,2,1,0,1,0,0
51,komatsuna,1,25,11,11,2,1,0,1,0,0
51,Jsteezy,12,11,11,11,2,1,0,1,0,0
51,Naaaaaaaaaas,10,11,11,11,2,1,0,1,0,0
51,DaCatzMeow,9,12,11,11,2,1,0,1,0,0
51,Swen 122,8,12,11,11,2,1,0,1,0,0
51,Nanich,7,11,11,11,2,1,0,1,0,0
51,CastorPollux,12,13,11,11,2,1,0,1,0,0
51,entling,8,11,11,11,2,1,0,1,0,0
51,Syonidehyde1165,4,16,11,11,2,1,0,1,0,0
51,OMNIPOTENT,3,36,11,11,2,1,0,2,0,0
51,LordDarktempler,11,11,11,11,2,1,0,1,0,0
51,Lord of Crypto,8,11,11,11,2,1,0,1,0,0
51,Ota Benga,12,61,11,11,2,1,0,2,0,0
51,√û,12,11,11,11,2,1,0,1,0,0
51,AMRLordCoins,9,12,11,11,2,1,0,1,0,0
51,jcsc1989,9,11,11,11,2,1,0,1,0,0
51,Glamlys,10,11,11,11,2,1,0,1,0,0
51,DisgustingHuman,8,15,11,11,2,1,0,1,0,0
51,KONA|GOLD,12,26,11,11,2,1,0,1,0,0
51,AlienWeapon,8,11,11,11,2,1,0,1,0,0
51,‰∏≠ÂõΩÈ±º,11,11,11,11,2,1,0,1,0,0
51,CannaBiene,10,42,11,11,2,1,0,2,0,0
51,DaikieRa,7,12,11,11,2,1,0,1,0,0
51,hiroppy,10,11,11,11,2,1,0,1,0,0
51,hERoIC15397,12,16,11,11,2,1,0,1,0,0
51,DonnyMacArth,7,32,11,11,2,1,0,2,0,0
51,jackow80,8,38,11,11,2,1,0,2,0,0
51,#WhiteStrikeüëåüèº,8,13,11,11,2,1,0,1,0,0
51,Mice Elf,8,14,11,11,2,1,0,1,0,0
51,longdarth,11,17,11,11,2,1,0,1,0,0
51,swimlane72,12,15,11,11,2,1,0,1,0,0
51,ZACHISNICE,7,24,11,11,2,1,0,1,0,0
51,JamesPMiller,9,11,11,11,2,1,0,1,0,0
51,Elfo Strego,4,20,11,11,2,1,0,1,0,0
51,BasVanSpanker,12,16,11,11,2,1,0,1,0,0
51,Des Petrovich,8,11,11,11,2,1,0,1,0,0
51,MarcheG,5,11,10,10,3,0,0,0,0,0
51,Damaged Gadget,11,17,10,10,3,0,0,0,0,0
51,El Dios Desencadenado,7,10,10,10,3,0,0,0,0,0
51,Chozami,10,10,10,10,3,0,0,0,0,0
51,Danbog,7,10,10,10,3,0,0,0,0,0
51,shadowstep33,7,10,10,10,3,0,0,0,0,0
51,(*^^*),10,11,10,10,3,0,0,0,0,0
51,∆â∆â∆â∆â,7,16,10,10,3,0,0,0,0,0
51,mattyesq,10,11,10,10,3,0,0,0,0,0
51,XSITE,12,51,10,10,3,0,0,1,0,0
51,Aadi1912,8,10,10,10,3,0,0,0,0,0
51,ThotHtheAtlanteaN,8,13,10,10,3,0,0,0,0,0
51,force_of_nature,11,10,10,10,3,0,0,0,0,0
51,Ultra-Ice,5,10,10,10,3,0,0,0,0,0
51,tyranoc4,2,10,10,10,3,0,0,0,0,0
51,‚ò∫,10,50,10,10,3,0,0,1,0,0
51,Kele,9,15,10,10,3,0,0,0,0,0
51,darkbluechain,9,13,10,10,3,0,0,0,0,0
51,Cryptoflaneur,6,10,10,10,3,0,0,0,0,0
51,verbalshadow,10,10,10,10,3,0,0,0,0,0
51,Inmabeli,8,30,10,10,3,0,0,1,0,0
51,CryptoEEra,10,10,10,10,3,0,0,0,0,0
51,Stede,12,30,10,10,3,0,0,1,0,0
51,coSMIX,9,10,10,10,3,0,0,0,0,0
51,Rvu_Vsem_Duplo,9,10,10,10,3,0,0,0,0,0
51,SheNut,7,14,10,10,3,0,0,0,0,0
51,drchronic01,9,9,9,9,3,0,0,0,0,0
51,Wl4nd3r,1,34,9,9,3,0,0,1,0,0
51,Yanicroft,8,9,9,9,3,0,0,0,0,0
51,Nbecerril53o,5,9,9,9,3,0,0,0,0,0
51,muhammad,8,33,9,9,3,0,0,1,0,0
51,nihao888,8,9,9,9,3,0,0,0,0,0
51,colliseum,12,14,9,9,3,0,0,0,0,0
51,Roberto23,5,17,9,9,3,0,0,0,0,0
51,BoUs1337,1,25,9,9,3,0,0,0,0,0
51,superman313,12,9,9,9,3,0,0,0,0,0
51,emiliomorles,8,9,9,9,3,0,0,0,0,0
51,Ê≠¶Â∞Ü,9,9,9,9,3,0,0,0,0,0
51,Naio,7,9,9,9,3,0,0,0,0,0
51,AdventureStory,6,9,9,9,3,0,0,0,0,0
51,Stoneward,9,9,9,9,3,0,0,0,0,0
51,SHINZON,7,9,9,9,3,0,0,0,0,0
51,Mlexon,5,13,9,9,3,0,0,0,0,0
51,Livingwish,7,9,9,9,3,0,0,0,0,0
51,OverM,11,9,9,9,3,0,0,0,0,0
51,SatChitAnanda,8,28,9,9,3,0,0,0,0,0
51,MagicOwl,7,14,9,9,3,0,0,0,0,0
51,Sergee25,9,9,9,9,3,0,0,0,0,0
51,superslim-NCP,8,9,9,9,3,0,0,0,0,0
51,Unique.Esprit,9,9,9,9,3,0,0,0,0,0
51,kovanova,9,9,9,9,3,0,0,0,0,0
51,Galgorath333,6,9,9,9,3,0,0,0,0,0
51,FSadinoX,4,9,9,9,3,0,0,0,0,0
51,skankhunt42,9,9,9,9,3,0,0,0,0,0
51,Fiofan,9,8,8,8,3,0,0,0,0,0
51,Spartakush,7,8,8,8,3,0,0,0,0,0
51,zkSnarky,3,8,8,8,3,0,0,0,0,0
51,GV,5,8,8,8,3,0,0,0,0,0
51,Lifeboy,9,8,8,8,3,0,0,0,0,0
51,abdumannon,5,10,8,8,3,0,0,0,0,0
51,Hm47goat,5,9,8,8,3,0,0,0,0,0
51,flarbman,4,8,8,8,3,0,0,0,0,0
51,PaxMagnus,11,8,8,8,3,0,0,0,0,0
51,Afronizer,12,8,8,8,3,0,0,0,0,0
51,Yate,7,8,8,8,3,0,0,0,0,0
51,Babooshka,5,10,8,8,3,0,0,0,0,0
51,LucentMeadows,1,8,8,8,3,0,0,0,0,0
51,Genketsu,8,8,8,8,3,0,0,0,0,0
51,Jinimage,5,16,8,8,3,0,0,0,0,0
51,yoshi0911,9,8,8,8,3,0,0,0,0,0
51,espina,5,20,8,8,3,0,0,0,0,0
51,vrjar,1,8,8,8,3,0,0,0,0,0
51,Zhiga,9,8,8,8,3,0,0,0,0,0
51,amin,11,22,8,8,3,0,0,0,0,0
51,hitseven,4,8,8,8,3,0,0,0,0,0
51,HaruhiSuzumiya,8,8,8,8,3,0,0,0,0,0
51,Djonbol1,8,7,7,7,2,0,0,0,0,0
51,eskoll899,4,7,7,7,2,0,0,0,0,0
51,gruberx!,8,7,7,7,2,0,0,0,0,0
51,CorpGravius,10,7,7,7,2,0,0,0,0,0
51,apix3222,7,7,7,7,2,0,0,0,0,0
51,J0kerzWyld,1,7,7,7,2,0,0,0,0,0
51,Noshlarr,9,7,7,7,2,0,0,0,0,0
51,AngryLookingGuy,5,7,7,7,2,0,0,0,0,0
51,Zzodiacz,7,8,7,7,2,0,0,0,0,0
51,DaoChemist,8,7,7,7,2,0,0,0,0,0
51,The Nature Boy,7,7,7,7,2,0,0,0,0,0
51,Ryujin0903,2,7,7,7,2,0,0,0,0,0
51,sinhead83,5,10,7,7,2,0,0,0,0,0
51,juliusnakamoto,6,7,7,7,2,0,0,0,0,0
51,freedom2020,8,7,7,7,2,0,0,0,0,0
51,stfchamp,10,7,7,7,2,0,0,0,0,0
51,GazzaMine,4,7,7,7,2,0,0,0,0,0
51,M.o.D,5,25,7,7,2,0,0,0,0,0
51,rawad878,1,12,7,7,2,0,0,0,0,0
51,.XXOTCXX.,7,17,7,7,2,0,0,0,0,0
51,spapinistarkware,1,7,7,7,2,0,0,0,0,0
51,macek166,3,7,7,7,2,0,0,0,0,0
51,blockchainedpando,7,26,7,7,2,0,0,0,0,0
51,ezimedia,7,7,7,7,2,0,0,0,0,0
51,plaakkon,10,17,7,7,2,0,0,0,0,0
51,ZhiBo,6,9,7,7,2,0,0,0,0,0
51,Konohime,8,6,6,6,2,0,0,0,0,0
51,Yavorlee,4,6,6,6,2,0,0,0,0,0
51,axordahaxor,9,6,6,6,2,0,0,0,0,0
51,Diman007,8,6,6,6,2,0,0,0,0,0
51,pauk6666,7,10,6,6,2,0,0,0,0,0
51,Blackbird,5,31,6,6,2,0,0,1,0,0
51,Gone_2_Deep,1,18,6,6,2,0,0,0,0,0
51,JaffyHigg,3,6,6,6,2,0,0,0,0,0
51,SLIB,9,6,6,6,2,0,0,0,0,0
51,Bobmynobster,5,6,6,6,2,0,0,0,0,0
51,Trollmann,10,6,6,6,2,0,0,0,0,0
51,ra,9,6,6,6,2,0,0,0,0,0
51,DEMON-Dude,8,7,6,6,2,0,0,0,0,0
51,MAC,7,6,6,6,2,0,0,0,0,0
51,ananasbanana,1,6,6,6,2,0,0,0,0,0
51,karlito636,10,6,6,6,2,0,0,0,0,0
51,Œú·¥á ü·¥è…¥,8,6,6,6,2,0,0,0,0,0
51,ILLGLORY,9,42,6,6,2,0,0,1,0,0
51,grega1999,8,6,6,6,2,0,0,0,0,0
51,taurus1983,7,16,6,6,2,0,0,0,0,0
51,Samishii,2,6,6,6,2,0,0,0,0,0
51,Hippietrip,5,10,6,6,2,0,0,0,0,0
51,MadMan,3,6,6,6,2,0,0,0,0,0
51,trance,3,6,6,6,2,0,0,0,0,0
51,tactics1,9,6,6,6,2,0,0,0,0,0
51,trollshock,8,6,6,6,2,0,0,0,0,0
51,sevenjay,5,6,6,6,2,0,0,0,0,0
51,PeterD,9,5,5,5,2,0,0,0,0,0
51,Ms. Tanith,5,5,5,5,2,0,0,0,0,0
51,StardewLover,7,5,5,5,2,0,0,0,0,0
51,Mrchains,2,5,5,5,2,0,0,0,0,0
51,josephku,7,5,5,5,2,0,0,0,0,0
51,maelstrom4880,4,5,5,5,2,0,0,0,0,0
51,chilltown,7,5,5,5,2,0,0,0,0,0
51,Demon Party,4,5,5,5,2,0,0,0,0,0
51,$,10,45,5,5,2,0,0,1,0,0
51,xvaimC70,5,5,5,5,2,0,0,0,0,0
51,BORAICHO,2,20,5,5,2,0,0,0,0,0
51,Tribone,7,5,5,5,2,0,0,0,0,0
51,Camypau-,8,5,5,5,2,0,0,0,0,0
51,DemonJnr,8,5,5,5,2,0,0,0,0,0
51,serthan,8,5,5,5,2,0,0,0,0,0
51,radi,12,5,5,5,2,0,0,0,0,0
51,el_oaxaco,4,5,5,5,2,0,0,0,0,0
51,Nininiao,12,5,5,5,2,0,0,0,0,0
51,trent_reznor,9,5,5,5,2,0,0,0,0,0
51,iflion,7,5,5,5,2,0,0,0,0,0
51,Rievserg,8,5,5,5,2,0,0,0,0,0
51,ohDeerGod,1,5,5,5,2,0,0,0,0,0
51,Sialla24,1,5,5,5,2,0,0,0,0,0
51,scottscabbers95,1,5,5,5,2,0,0,0,0,0
51,Slippy P,9,5,5,5,2,0,0,0,0,0
51,Q,7,5,5,5,2,0,0,0,0,0
51,Cruel Vegan,1,5,5,5,2,0,0,0,0,0
51,Noses796,5,29,4,4,1,0,0,0,0,0
51,JMoney,11,4,4,4,1,0,0,0,0,0
51,JadedLight,5,4,4,4,1,0,0,0,0,0
51,EL CAPITOCH,1,4,4,4,1,0,0,0,0,0
51,Nyktimen√©,7,4,4,4,1,0,0,0,0,0
51,isaacfufu,9,4,4,4,1,0,0,0,0,0
51,WOLFPT,5,4,4,4,1,0,0,0,0,0
51,ConflictedNewton,11,4,4,4,1,0,0,0,0,0
51,masanari,7,4,4,4,1,0,0,0,0,0
51,@$$,10,4,4,4,1,0,0,0,0,0
51,intacrypt,6,4,4,4,1,0,0,0,0,0
51,MaestroGR,8,4,4,4,1,0,0,0,0,0
51,Progressive,1,4,4,4,1,0,0,0,0,0
51,psychofking,1,4,4,4,1,0,0,0,0,0
51,Jdeluxe,7,4,4,4,1,0,0,0,0,0
51,goldemon,9,4,4,4,1,0,0,0,0,0
51,Boseafus,1,4,4,4,1,0,0,0,0,0
51,dalahad,10,4,4,4,1,0,0,0,0,0
51,iluvsheep,8,4,4,4,1,0,0,0,0,0
51,quantumgamble,10,4,4,4,1,0,0,0,0,0
51,Kolledaboss,8,4,4,4,1,0,0,0,0,0
51,PuzzleMazl,9,4,4,4,1,0,0,0,0,0
51,forest gate,2,4,4,4,1,0,0,0,0,0
51,WildCard0341,8,4,4,4,1,0,0,0,0,0
51,SpicoliAndreti,6,4,4,4,1,0,0,0,0,0
51,turgor777,7,4,4,4,1,0,0,0,0,0
51,fuck_all,7,4,4,4,1,0,0,0,0,0
51,shadowstrike42,7,4,4,4,1,0,0,0,0,0
51,strange,5,4,4,4,1,0,0,0,0,0
51,blockchaingames.fun,9,4,4,4,1,0,0,0,0,0
51,Zerxus,4,4,4,4,1,0,0,0,0,0
51,monkey,8,4,4,4,1,0,0,0,0,0
51,Bielobog,8,4,4,4,1,0,0,0,0,0
51,TerribleJIexa,8,4,4,4,1,0,0,0,0,0
51,DPRoberts99,7,4,4,4,1,0,0,0,0,0
51,PrinceH,7,4,4,4,1,0,0,0,0,0
51,bang39,9,4,4,4,1,0,0,0,0,0
51,aeaon,5,4,4,4,1,0,0,0,0,0
51,yo.achim,7,4,4,4,1,0,0,0,0,0
51,FlexyFlexy,8,3,3,3,1,0,0,0,0,0
51,BlocksUnchained,11,3,3,3,1,0,0,0,0,0
51,Ragnor8476,9,3,3,3,1,0,0,0,0,0
51,cambocleve,9,3,3,3,1,0,0,0,0,0
51,Sorpiondude,4,3,3,3,1,0,0,0,0,0
51,restb777,8,3,3,3,1,0,0,0,0,0
51,daviroz,1,3,3,3,1,0,0,0,0,0
51,Rakalel,7,3,3,3,1,0,0,0,0,0
51,Denker,9,3,3,3,1,0,0,0,0,0
51,TriggerHappy,1,3,3,3,1,0,0,0,0,0
51,bartek35,2,3,3,3,1,0,0,0,0,0
51,Gabriel,9,3,3,3,1,0,0,0,0,0
51,[Twitch4Fun] Kaeserotor,12,3,3,3,1,0,0,0,0,0
51,Olymp,7,3,3,3,1,0,0,0,0,0
51,Acecompac,6,3,3,3,1,0,0,0,0,0
51,noa2015,7,3,3,3,1,0,0,0,0,0
51,CryptoHype,4,3,3,3,1,0,0,0,0,0
51,trakzenator,7,3,3,3,1,0,0,0,0,0
51,wingwolf,1,3,3,3,1,0,0,0,0,0
51,DeMoN666,10,3,3,3,1,0,0,0,0,0
51,Overlordtrial,5,3,3,3,1,0,0,0,0,0
51,Fettsauchris,1,3,3,3,1,0,0,0,0,0
51,Yurij,8,3,3,3,1,0,0,0,0,0
51,Justinkase,7,3,3,3,1,0,0,0,0,0
51,ToggleBlade,1,3,3,3,1,0,0,0,0,0
51,blue&white,5,3,3,3,1,0,0,0,0,0
51,chickpeaces,1,3,3,3,1,0,0,0,0,0
51,-=√êDr√Æve~√üyE‚Ç¨=-,5,3,3,3,1,0,0,0,0,0
51,Harmike6,1,3,3,3,1,0,0,0,0,0
51,‰ªä,12,3,3,3,1,0,0,0,0,0
51,mglmori,9,3,3,3,1,0,0,0,0,0
51,screenlag,1,3,3,3,1,0,0,0,0,0
51,bwindi,6,3,3,3,1,0,0,0,0,0
51,davirozz,8,3,3,3,1,0,0,0,0,0
51,Cryptotastic,12,3,3,3,1,0,0,0,0,0
51,Edgecaser,9,2,2,2,0,0,0,0,0,0
51,ill_coin,6,2,2,2,0,0,0,0,0,0
51,PropanePanda,3,2,2,2,0,0,0,0,0,0
51,Diablokgb,9,2,2,2,0,0,0,0,0,0
51,TrungGau,3,2,2,2,0,0,0,0,0,0
51,ronink77,4,2,2,2,0,0,0,0,0,0
51,Avatar1188,4,2,2,2,0,0,0,0,0,0
51,crystalhuman,6,2,2,2,0,0,0,0,0,0
51,„ÅäÈáëÁå´,10,2,2,2,0,0,0,0,0,0
51,stachu,8,2,2,2,0,0,0,0,0,0
51,AmericanIcarus,8,2,2,2,0,0,0,0,0,0
51,ghostofmerln,9,2,2,2,0,0,0,0,0,0
51,BuidloBagins,10,2,2,2,0,0,0,0,0,0
51,gu.cards,8,2,2,2,0,0,0,0,0,0
51,EdOnCouch,11,2,2,2,0,0,0,0,0,0
51,[Mythic] Freedan Fan,12,2,2,2,0,0,0,0,0,0
51,Reaperkiller,4,2,2,2,0,0,0,0,0,0
51,NoblusMass,5,2,2,2,0,0,0,0,0,0
51,Totemsh,9,2,2,2,0,0,0,0,0,0
51,god of ganja,7,2,2,2,0,0,0,0,0,0
51,gothmaug,10,2,2,2,0,0,0,0,0,0
51,Ainokami,8,2,2,2,0,0,0,0,0,0
51,BlueBeard,3,2,2,2,0,0,0,0,0,0
51,willtheitking,5,2,2,2,0,0,0,0,0,0
51,ShadedGlade,3,2,2,2,0,0,0,0,0,0
51,Blackhalo,4,2,2,2,0,0,0,0,0,0
51,Kojiroad,5,2,2,2,0,0,0,0,0,0
51,Akramoff,6,2,2,2,0,0,0,0,0,0
51,Jahura_Banu,8,2,2,2,0,0,0,0,0,0
51,Yostari,8,2,2,2,0,0,0,0,0,0
51,Mojo,6,2,2,2,0,0,0,0,0,0
51,Cerberus,8,2,2,2,0,0,0,0,0,0
51,HeresYourTollTroll,10,2,2,2,0,0,0,0,0,0
51,NessUnchained,1,2,2,2,0,0,0,0,0,0
51,GOD OF CATS üòª,8,2,2,2,0,0,0,0,0,0
51,vexbasquae,1,2,2,2,0,0,0,0,0,0
51,Mephisto,1,2,2,2,0,0,0,0,0,0
51,shenky95,1,2,2,2,0,0,0,0,0,0
51,Ryl0Xx,1,2,2,2,0,0,0,0,0,0
51,Minimunzter,1,2,2,2,0,0,0,0,0,0
51,kolia3616,7,2,2,2,0,0,0,0,0,0
51,romansito,4,2,2,2,0,0,0,0,0,0
51,seedlingqueen,1,2,2,2,0,0,0,0,0,0
51,Varick,9,2,2,2,0,0,0,0,0,0
51,Noice,8,2,2,2,0,0,0,0,0,0
51,Goder,7,2,2,2,0,0,0,0,0,0
51,Drunkigan,4,2,2,2,0,0,0,0,0,0
51,Jin Jazama,3,2,2,2,0,0,0,0,0,0
51,Ninjaturtle,8,2,2,2,0,0,0,0,0,0
51,~o0GiN0o~,8,2,2,2,0,0,0,0,0,0
51,bouncetree,7,2,2,2,0,0,0,0,0,0
51,Lazy Panda,1,2,2,2,0,0,0,0,0,0
51,Deadmarsh,7,2,2,2,0,0,0,0,0,0
51,BTGMoose,1,2,2,2,0,0,0,0,0,0
51,skabber,10,1,1,1,0,0,0,0,0,0
51,Helga999,8,1,1,1,0,0,0,0,0,0
51,Sephiroth,1,1,1,1,0,0,0,0,0,0
51,Lollerskates,8,1,1,1,0,0,0,0,0,0
51,Zathura45,7,1,1,1,0,0,0,0,0,0
51,Ezoss_in_space,1,1,1,1,0,0,0,0,0,0
51,Blank Never Loses,11,1,1,1,0,0,0,0,0,0
51,Edmondous,4,1,1,1,0,0,0,0,0,0
51,ReportMe,7,1,1,1,0,0,0,0,0,0
51,Imperator Arcadus,3,1,1,1,0,0,0,0,0,0
51,Watemper,8,1,1,1,0,0,0,0,0,0
51,Kronos,11,1,1,1,0,0,0,0,0,0
51,prism610,1,1,1,1,0,0,0,0,0,0
51,furryballs,8,1,1,1,0,0,0,0,0,0
51,Lokiness,1,1,1,1,0,0,0,0,0,0
51,gusarcek,1,1,1,1,0,0,0,0,0,0
51,Achilles64,3,1,1,1,0,0,0,0,0,0
51,Ruf,7,1,1,1,0,0,0,0,0,0
51,o2Beast,1,1,1,1,0,0,0,0,0,0
51,FreeWilly,1,1,1,1,0,0,0,0,0,0
51,Koyaanisqatsi,7,1,1,1,0,0,0,0,0,0
51,Lighon,6,1,1,1,0,0,0,0,0,0
51,ProtegeAA,6,1,1,1,0,0,0,0,0,0
51,AlanSteve,3,1,1,1,0,0,0,0,0,0
51,menelvagor,12,1,1,1,0,0,0,0,0,0
51,Alpha_Adz,7,1,1,1,0,0,0,0,0,0
51,Akiro,7,1,1,1,0,0,0,0,0,0
51,bobcryptolover,6,1,1,1,0,0,0,0,0,0
51,shiskebab10,5,1,1,1,0,0,0,0,0,0
51,Hastal Havista,6,1,1,1,0,0,0,0,0,0
51,Vaffelei,1,1,1,1,0,0,0,0,0,0
51,LittleMeTime,8,1,1,1,0,0,0,0,0,0
51,naiden39,5,1,1,1,0,0,0,0,0,0
51,Wazza,2,1,1,1,0,0,0,0,0,0
51,blondin,6,1,1,1,0,0,0,0,0,0
51,Venomarix,1,1,1,1,0,0,0,0,0,0
51,Allaunthefox,3,1,1,1,0,0,0,0,0,0
51,Cdg,4,1,1,1,0,0,0,0,0,0
51,blackford2,1,1,1,1,0,0,0,0,0,0
51,Hedeslag,4,1,1,1,0,0,0,0,0,0
51,crypto_bovine,6,1,1,1,0,0,0,0,0,0
51,QuinnBear,10,1,1,1,0,0,0,0,0,0
51,ThatCrooks,4,1,1,1,0,0,0,0,0,0
51,Barbajay,1,1,1,1,0,0,0,0,0,0
51,spacepirate,9,1,1,1,0,0,0,0,0,0
51,oniru,7,1,1,1,0,0,0,0,0,0
51,KrypTonik,7,1,1,1,0,0,0,0,0,0
51,DiarrheaTsunami,2,1,1,1,0,0,0,0,0,0
51,mike0182,10,1,1,1,0,0,0,0,0,0
51,format c:\,6,1,1,1,0,0,0,0,0,0
51,LandynsCryptoz,1,1,1,1,0,0,0,0,0,0
51,Xiato,7,1,1,1,0,0,0,0,0,0
51,Cesarius,1,1,1,1,0,0,0,0,0,0
51,cobraKing,1,1,1,1,0,0,0,0,0,0
51,ReidulousKane,5,1,1,1,0,0,0,0,0,0
51,FraudulentFree,2,1,1,1,0,0,0,0,0,0
51,The Cleric,5,1,1,1,0,0,0,0,0,0
51,homline,7,1,1,1,0,0,0,0,0,0
51,PeriodBloodMouthWash,7,1,1,1,0,0,0,0,0,0
51,delphinny,1,1,1,1,0,0,0,0,0,0
51,Ponysibirsk,1,1,1,1,0,0,0,0,0,0
51,Zulhakar,9,1,1,1,0,0,0,0,0,0
51,onlys,6,1,1,1,0,0,0,0,0,0
51,Dinobravo,1,1,1,1,0,0,0,0,0,0
51,SnoozeDragon,6,1,1,1,0,0,0,0,0,0
51,Longsan1,1,1,1,1,0,0,0,0,0,0
51,manckys1126,8,1,1,1,0,0,0,0,0,0
51,BalacX,1,1,1,1,0,0,0,0,0,0
51,BohemianBrewer,1,1,1,1,0,0,0,0,0,0
51,N0fx,7,1,1,1,0,0,0,0,0,0
51,WARRgod1,1,1,1,1,0,0,0,0,0,0
51,Soothio1,4,1,1,1,0,0,0,0,0,0
51,marukaziri,8,1,1,1,0,0,0,0,0,0
51,BosluisTepel,1,1,1,1,0,0,0,0,0,0
51,Dancing_shep,8,1,1,1,0,0,0,0,0,0
51,shock,10,1,1,1,0,0,0,0,0,0
51,HappyMan811,4,1,1,1,0,0,0,0,0,0
51,RCP10000,1,1,1,1,0,0,0,0,0,0
51,fd204,10,1,1,1,0,0,0,0,0,0
51,Savant.Specter,12,1,1,1,0,0,0,0,0,0
51,GL1TCH,8,1,1,1,0,0,0,0,0,0
51,JimmyBeaver,8,1,1,1,0,0,0,0,0,0
51,dr-nuker,4,1,1,1,0,0,0,0,0,0
51,Staff Phyre,4,1,1,1,0,0,0,0,0,0
51,Bakura10,4,1,1,1,0,0,0,0,0,0
51,SneezyDwarf,12,1,1,1,0,0,0,0,0,0
51,LuckyGuy,6,1,1,1,0,0,0,0,0,0
51,Drjajuan,1,1,1,1,0,0,0,0,0,0
51,remiranda28,3,1,1,1,0,0,0,0,0,0
51,SteelRat,11,1,1,1,0,0,0,0,0,0
