,Username,Place,Peak Rating,Wins,Wins in first 25,Counted Wins,Core Rare,Core Epic,Core Legendary,Trial Rare,Trial Epic,Trial Legendary,,
Elite Tier,Mirage88,1,1533.203168,76,22,22,0,0,2,0,0,3,,"""Counted wins"" are either the total number of wins a player earned, or their maximum allowed for prizes based on the rank they had at the end of their 25th game during the event."
Leaderboard,Wezz,2,1528.05984,31,21,21,0,0,2,0,1,2,,
,[tst]cautionfun,3,1511.559552,45,21,21,0,0,2,0,0,2,,
,Ayo,4,1484.682816,30,21,21,0,1,1,0,0,2,,
,The38th,5,1505.485216,30,20,20,0,0,1,0,0,2,,
,rl958,6,1486.345344,21,20,20,0,0,1,0,1,1,,
,„ÇÜ„Åã„Çä,7,1480.203456,22,20,20,0,0,1,0,0,1,,
,·ºåœÅŒ∑œÇ,8,1460.3768,30,20,20,0,0,0,0,1,1,,
,Gandalf,9,1515.218176,32,19,19,0,1,0,0,0,1,,
,[tst] Freedan,10,1497.540704,23,19,19,0,0,0,0,0,1,,
,,,,,,,,,,,,,,
,Username,,Rank,Wins,Wins in first 25,Counted Wins,Core Rare,Core Epic,Core Legendary,Trial Rare,Trial Epic,Trial Legendary,,
,Mirage88,,12,76,22,22,0,0,3,1,0,2,,
,Wezz,,12,31,21,21,0,0,2,1,2,1,,
,Ayo,,12,30,21,21,0,0,2,1,2,1,,
,[tst]cautionfun,,12,45,21,21,0,0,2,1,2,1,,
Complete,rl958,,12,21,20,20,0,1,1,1,1,1,,
Weekend,The38th,,12,30,20,20,0,1,1,2,1,1,,
Ranked,„ÇÜ„Åã„Çä,,12,22,20,20,0,1,1,1,1,1,,
(Includes,·ºåœÅŒ∑œÇ,,12,30,20,20,0,1,1,2,1,1,,
Bonus Prizes,Cryptolemon,,11,20,19,19,0,2,1,0,2,0,,
for 30 Wins),[tst] Freedan,,12,23,19,19,0,2,1,0,2,0,,
,„ÅÇ,,12,19,19,19,0,2,1,0,2,0,,
,[Mythic] Dragonstorm,,12,37,19,19,0,2,1,1,2,0,,
,[Mythic] revan,,12,30,19,19,0,2,1,1,2,0,,
,TheNachoSamurai,,12,33,19,19,0,2,1,1,2,0,,
,Gandalf,,12,32,19,19,0,2,1,1,2,0,,
,roytutu,,10,35,20,19,0,2,1,1,2,0,,
,Apollo,,12,23,18,18,0,3,0,0,2,0,,
,fluffyhag,,9,18,18,18,0,3,0,0,2,0,,
,TREY,,12,32,18,18,0,3,0,1,2,0,,
,[tst]themudman,,12,30,18,18,0,3,0,1,2,0,,
,Sankhara,,10,27,18,18,0,3,0,0,2,0,,
,superman313,,9,21,19,18,0,3,0,0,2,0,,
,Wasper,,9,21,20,18,0,3,0,0,2,0,,
,channnnn,,10,18,18,18,0,3,0,0,2,0,,
,GUDecks.com,,12,30,18,18,0,3,0,1,2,0,,
,ScrMcDuck,,9,18,18,18,0,3,0,0,2,0,,
,zlaxor,,12,18,18,18,0,3,0,0,2,0,,
,–Ω–æ–≥–æ–æ–Ω–∑–∞–ª—É—É,,12,18,18,18,0,3,0,0,2,0,,
,SneezyDwarf,,9,24,18,18,0,3,0,0,2,0,,
,Androssi,,9,18,18,18,0,3,0,0,2,0,,
,Fantomasek,,12,39,18,18,0,3,0,1,2,0,,
,Ares,,9,34,17,17,1,2,0,1,2,0,,
,Demolisher,,8,18,18,17,1,2,0,0,2,0,,
,Moonpig,,11,17,17,17,1,2,0,0,2,0,,
,V-Hirvi,,12,32,17,17,1,2,0,1,2,0,,
,superslim,,8,65,19,17,1,2,0,1,2,0,,
,SLIB,,8,19,17,17,1,2,0,0,2,0,,
,Zorian,,8,17,17,17,1,2,0,0,2,0,,
,XSITE,,9,24,17,17,1,2,0,0,2,0,,
,0x7d31apuz,,9,51,17,17,1,2,0,1,2,0,,
,smirnawf,,8,17,17,17,1,2,0,0,2,0,,
,Drummerboyj,,9,17,17,17,1,2,0,0,2,0,,
,Cerne,,12,17,17,17,1,2,0,0,2,0,,
,raz0r,,8,18,18,17,1,2,0,0,2,0,,
,verbalshadow,,9,19,17,17,1,2,0,0,2,0,,
,slivenec,,8,24,18,17,1,2,0,0,2,0,,
,Galragg,,8,17,17,17,1,2,0,0,2,0,,
,Lysander,,12,27,17,17,1,2,0,0,2,0,,
,BasVanSpanker,,10,19,17,17,1,2,0,0,2,0,,
,Tiannizu,,8,16,16,16,0,3,0,1,1,0,,
,X √Ü A-12,,9,16,16,16,0,3,0,1,1,0,,
,sensebe,,10,28,16,16,0,3,0,1,1,0,,
,Krumpy Lumpkins,,12,41,16,16,0,3,0,2,1,0,,
,gohm,,8,16,16,16,0,3,0,1,1,0,,
,carebear,,11,16,16,16,0,3,0,1,1,0,,
,Hypnotic,,7,16,16,16,0,3,0,1,1,0,,
,PooNaniHunter,,8,16,16,16,0,3,0,1,1,0,,
,LCHammer,,12,24,16,16,0,3,0,1,1,0,,
,‚ò∫,,7,54,20,16,0,3,0,2,1,0,,
,War69,,8,16,16,16,0,3,0,1,1,0,,
,Afronizer,,10,16,16,16,0,3,0,1,1,0,,
,Starry Ninja,,7,31,22,16,0,3,0,2,1,0,,
,Stoneward,,8,17,16,16,0,3,0,1,1,0,,
,densdensdens,,8,16,16,16,0,3,0,1,1,0,,
,jcsc1989,,8,16,16,16,0,3,0,1,1,0,,
,blockchaingames.fun,,7,22,19,16,0,3,0,1,1,0,,
,Waikikamukau,,11,37,16,16,0,3,0,2,1,0,,
,‰∏≠ÂõΩÈ±º,,12,19,16,16,0,3,0,1,1,0,,
,blacksad,,10,16,16,16,0,3,0,1,1,0,,
,LetMeLive,,12,16,16,16,0,3,0,1,1,0,,
,F√´anor,,7,42,16,16,0,3,0,2,1,0,,
,VonMises,,9,22,16,16,0,3,0,1,1,0,,
,DiegoFerreL,,12,42,16,16,0,3,0,2,1,0,,
,hiroppy,,9,16,16,16,0,3,0,1,1,0,,
,Ëá™ÁÑ∂,,12,32,16,16,0,3,0,2,1,0,,
,amin,,7,72,17,16,0,3,0,2,1,0,,
,TheHassy,,12,16,16,16,0,3,0,1,1,0,,
,‚åÄ,,7,30,18,16,0,3,0,2,1,0,,
,„Éô„ÉÉ„ÇØ,,9,30,16,16,0,3,0,2,1,0,,
,RagDoll,,11,40,16,16,0,3,0,2,1,0,,
,StardewLover,,6,25,20,15,1,2,0,2,0,0,,
,Saint777,,11,15,15,15,1,2,0,2,0,0,,
,Yanicroft,,5,15,15,15,1,2,0,2,0,0,,
,kigawakunto27,,12,17,15,15,1,2,0,2,0,0,,
,Nbecerril53o,,5,16,15,15,1,2,0,2,0,0,,
,Dactar,,8,15,15,15,1,2,0,2,0,0,,
,„Ç∂„Éè„Éº„Éâ,,12,30,15,15,1,2,0,3,0,0,,
,Pesaac2020,,6,47,16,15,1,2,0,3,0,0,,
,mahkoyu5143,,10,16,15,15,1,2,0,2,0,0,,
,Ainokami,,7,15,15,15,1,2,0,2,0,0,,
,DEMON-Dude,,5,22,16,15,1,2,0,2,0,0,,
,≈Ω≈Ω≈Ω,,6,30,20,15,1,2,0,3,0,0,,
,[Mythic] GGian,,12,37,15,15,1,2,0,3,0,0,,
,SatChitAnanda,,6,39,15,15,1,2,0,3,0,0,,
,ElPatron,,8,15,15,15,1,2,0,2,0,0,,
,Omen #MetaHash,,10,25,15,15,1,2,0,2,0,0,,
,‚úú,,11,17,15,15,1,2,0,2,0,0,,
,Nonchan,,12,59,15,15,1,2,0,3,0,0,,
,Stede,,11,32,15,15,1,2,0,3,0,0,,
,---gbg---,,5,15,15,15,1,2,0,2,0,0,,
,[tst]bonkthatbutt,,12,15,15,15,1,2,0,2,0,0,,
,MustangKirby,,7,30,15,15,1,2,0,3,0,0,,
,Ungulate-NCP,,12,15,15,15,1,2,0,2,0,0,,
,theboogyman,,8,15,15,15,1,2,0,2,0,0,,
,Diman007,,7,14,14,14,1,2,0,2,0,0,,
,Cindy,,8,14,14,14,1,2,0,2,0,0,,
,Tru+hSe3ker,,10,14,14,14,1,2,0,2,0,0,,
,Grijander,,6,37,14,14,1,2,0,3,0,0,,
,Slackov,,11,14,14,14,1,2,0,2,0,0,,
,È≠îjunior,,12,15,14,14,1,2,0,2,0,0,,
,The Nature Boy,,6,14,14,14,1,2,0,2,0,0,,
,bs241111,,7,21,14,14,1,2,0,2,0,0,,
,popovanton89,,12,32,14,14,1,2,0,3,0,0,,
,„Ç≠„ÉÑ„Éç„ÅÆÂè´„Å≥,,12,14,14,14,1,2,0,2,0,0,,
,rare,,12,14,14,14,1,2,0,2,0,0,,
,√û,,12,15,14,14,1,2,0,2,0,0,,
,noteboom,,12,14,14,14,1,2,0,2,0,0,,
,ü§°,,11,17,14,14,1,2,0,2,0,0,,
,Sir Tango,,11,14,14,14,1,2,0,2,0,0,,
,BlackMagic,,10,36,14,14,1,2,0,3,0,0,,
,NOXIOUS,,11,14,14,14,1,2,0,2,0,0,,
,Âá±ËíÇË≤ì,,12,34,14,14,1,2,0,3,0,0,,
,trent_reznor,,9,14,14,14,1,2,0,2,0,0,,
,Kinch,,12,25,14,14,1,2,0,2,0,0,,
,GOD OF CATS üòª,,8,25,14,14,1,2,0,2,0,0,,
,SonGokuBg,,11,14,14,14,1,2,0,2,0,0,,
,grega1999,,8,33,14,14,1,2,0,3,0,0,,
,PleaseDontRope,,9,14,14,14,1,2,0,2,0,0,,
,Xpwao,,7,30,14,14,1,2,0,3,0,0,,
,–∞,,11,14,14,14,1,2,0,2,0,0,,
,swimlane72,,9,40,14,14,1,2,0,3,0,0,,
,superslim-NCP,,8,30,14,14,1,2,0,3,0,0,,
,Salernik,,11,14,14,14,1,2,0,2,0,0,,
,‚†Ä,,12,37,14,14,1,2,0,3,0,0,,
,Rvu_Vsem_Duplo,,8,19,14,14,1,2,0,2,0,0,,
,Makakka,,9,19,13,13,2,1,0,1,0,0,,
,JMoney,,11,17,13,13,2,1,0,1,0,0,,
,Djonbol1,,9,27,13,13,2,1,0,1,0,0,,
,allstarrunner,,7,13,13,13,2,1,0,1,0,0,,
,Tripel_Ix,,1,14,14,13,2,1,0,1,0,0,,
,rikitiktik88,,1,23,14,13,2,1,0,1,0,0,,
,„ÅÆ„Çì„Å°„ÇÉ„Çì,,10,24,13,13,2,1,0,1,0,0,,
,Resonator,,12,13,13,13,2,1,0,1,0,0,,
,intacrypt,,5,15,13,13,2,1,0,1,0,0,,
,Noshlarr,,9,14,13,13,2,1,0,1,0,0,,
,Aeden,,1,31,18,13,2,1,0,2,0,0,,
,Shibanqk,,12,15,13,13,2,1,0,1,0,0,,
,colliseum,,12,13,13,13,2,1,0,1,0,0,,
,SonOfLilith,,5,16,13,13,2,1,0,1,0,0,,
,NoblusMass,,3,22,13,13,2,1,0,1,0,0,,
,Roberto23,,7,15,13,13,2,1,0,1,0,0,,
,Demons,,11,13,13,13,2,1,0,1,0,0,,
,vogimania,,6,13,13,13,2,1,0,1,0,0,,
,GodMode,,7,34,13,13,2,1,0,2,0,0,,
,TheRabbitRun,,1,14,14,13,2,1,0,1,0,0,,
,Vincent,,3,36,17,13,2,1,0,2,0,0,,
,el_oaxaco,,1,16,15,13,2,1,0,1,0,0,,
,stfchamp,,8,15,13,13,2,1,0,1,0,0,,
,tyagamaru,,6,20,13,13,2,1,0,1,0,0,,
,Genketsu,,1,32,18,13,2,1,0,2,0,0,,
,Glamlys,,10,13,13,13,2,1,0,1,0,0,,
,SolarMkd,,11,18,13,13,2,1,0,1,0,0,,
,Œú·¥á ü·¥è…¥,,8,13,13,13,2,1,0,1,0,0,,
,RavenGuard,,12,13,13,13,2,1,0,1,0,0,,
,pornhub,,8,26,13,13,2,1,0,1,0,0,,
,Sir Ike Moesha Broflovski,,10,30,13,13,2,1,0,2,0,0,,
,yoshi0911,,3,54,16,13,2,1,0,2,0,0,,
,Headsnap,,5,13,13,13,2,1,0,1,0,0,,
,someonesomeone,,12,13,13,13,2,1,0,1,0,0,,
,Montrix,,8,13,13,13,2,1,0,1,0,0,,
,Hellicon,,10,14,13,13,2,1,0,1,0,0,,
,Sameersh,,5,26,13,13,2,1,0,1,0,0,,
,DeHenne,,10,30,13,13,2,1,0,2,0,0,,
,Soyeonji,,1,13,13,13,2,1,0,1,0,0,,
,Unique.Esprit,,9,14,13,13,2,1,0,1,0,0,,
,Cryptotastic,,12,19,13,13,2,1,0,1,0,0,,
,Maeghir,,1,17,15,13,2,1,0,1,0,0,,
,cryptoznewb,,12,14,13,13,2,1,0,1,0,0,,
,Thirdman,,8,13,13,13,2,1,0,1,0,0,,
,CopperPitch,,12,14,13,13,2,1,0,1,0,0,,
,DudeGuy420,,8,16,13,13,2,1,0,1,0,0,,
,teajcof11,,1,17,16,13,2,1,0,1,0,0,,
,suplantox,,1,41,13,13,2,1,0,2,0,0,,
,Â≠¶‰∏≠Êñá,,12,30,13,13,2,1,0,2,0,0,,
,MarcheG,,4,13,12,12,2,1,0,1,0,0,,
,aimsuper2,,1,15,12,12,2,1,0,1,0,0,,
,little1985,,10,12,12,12,2,1,0,1,0,0,,
,dad,,7,12,12,12,2,1,0,1,0,0,,
,sadisteck,,10,12,12,12,2,1,0,1,0,0,,
,Brathering,,6,12,12,12,2,1,0,1,0,0,,
,[Pulse] Aldoc,,11,12,12,12,2,1,0,1,0,0,,
,menelvagor,,12,13,12,12,2,1,0,1,0,0,,
,ZEALOT,,7,12,12,12,2,1,0,1,0,0,,
,[Mythic] Unchained,,12,12,12,12,2,1,0,1,0,0,,
,DaoChemist,,7,12,12,12,2,1,0,1,0,0,,
,Ckastigador,,11,30,12,12,2,1,0,2,0,0,,
,Longy,,11,53,12,12,2,1,0,2,0,0,,
,juliusnakamoto,,6,13,12,12,2,1,0,1,0,0,,
,dalahad,,10,12,12,12,2,1,0,1,0,0,,
,blondin,,6,16,12,12,2,1,0,1,0,0,,
,DemonJnr,,9,22,12,12,2,1,0,1,0,0,,
,gerundio,,10,12,12,12,2,1,0,1,0,0,,
,darkbluechain,,10,13,12,12,2,1,0,1,0,0,,
,Naio,,6,12,12,12,2,1,0,1,0,0,,
,CaptainCola,,6,12,12,12,2,1,0,1,0,0,,
,AMRLordCoins,,7,13,12,12,2,1,0,1,0,0,,
,maulotov,,12,12,12,12,2,1,0,1,0,0,,
,leggoreaver,,3,36,12,12,2,1,0,2,0,0,,
,Lexis023,,1,12,12,12,2,1,0,1,0,0,,
,trilldebeest,,9,22,12,12,2,1,0,1,0,0,,
,RedDeath,,11,14,12,12,2,1,0,1,0,0,,
,KONA|GOLD,,11,33,12,12,2,1,0,2,0,0,,
,Livingwish,,8,15,12,12,2,1,0,1,0,0,,
,Oblongfitzoblong,,11,12,12,12,2,1,0,1,0,0,,
,ferzspb,,11,25,12,12,2,1,0,1,0,0,,
,sczi*987,,6,24,12,12,2,1,0,1,0,0,,
,AwesomeSparkly,,7,15,12,12,2,1,0,1,0,0,,
,sparky,,11,25,12,12,2,1,0,1,0,0,,
,DaikieRa,,8,30,12,12,2,1,0,2,0,0,,
,Elyon,,11,14,12,12,2,1,0,1,0,0,,
,DrippSinatra,,9,14,12,12,2,1,0,1,0,0,,
,jackow80,,9,49,12,12,2,1,0,2,0,0,,
,#WhiteStrikeüëåüèº,,7,37,12,12,2,1,0,2,0,0,,
,Aragon,,12,12,12,12,2,1,0,1,0,0,,
,Nevermore_SoL,,1,12,12,12,2,1,0,1,0,0,,
,Paradime,,8,12,12,12,2,1,0,1,0,0,,
,Scuffle,,12,12,12,12,2,1,0,1,0,0,,
,Xile1985,,6,15,12,12,2,1,0,1,0,0,,
,cjmoles,,7,18,12,12,2,1,0,1,0,0,,
,Helga999,,6,11,11,11,2,1,0,1,0,0,,
,Deil713009,,6,22,11,11,2,1,0,1,0,0,,
,kityoe00,,5,11,11,11,2,1,0,1,0,0,,
,Chozami,,9,11,11,11,2,1,0,1,0,0,,
,Akilsainon,,11,11,11,11,2,1,0,1,0,0,,
,Gwyndolin,,7,23,11,11,2,1,0,1,0,0,,
,Koyaanisqatsi,,5,11,11,11,2,1,0,1,0,0,,
,cholzgu,,9,12,11,11,2,1,0,1,0,0,,
,maragigayan,,9,11,11,11,2,1,0,1,0,0,,
,∆â∆â∆â∆â,,9,12,11,11,2,1,0,1,0,0,,
,jnew00,,6,11,11,11,2,1,0,1,0,0,,
,Alpha_Adz,,7,22,11,11,2,1,0,1,0,0,,
,ValBelair,,9,11,11,11,2,1,0,1,0,0,,
,force_of_nature,,12,11,11,11,2,1,0,1,0,0,,
,dobindubas,,7,11,11,11,2,1,0,1,0,0,,
,Bushmakanic,,4,11,11,11,2,1,0,1,0,0,,
,ProAndyKiller,,9,11,11,11,2,1,0,1,0,0,,
,OPEPEN-MAN,,12,16,11,11,2,1,0,1,0,0,,
,Ota Benga,,11,55,11,11,2,1,0,2,0,0,,
,„ÉÄ„É©„Çπ„Éê„Éº,,12,11,11,11,2,1,0,1,0,0,,
,HeresYourTollTroll,,7,19,11,11,2,1,0,1,0,0,,
,saynyordie,,1,34,11,11,2,1,0,2,0,0,,
,AlienWeapon,,10,12,11,11,2,1,0,1,0,0,,
,karlito636,,9,11,11,11,2,1,0,1,0,0,,
,freaky44,,8,11,11,11,2,1,0,1,0,0,,
,Easycake001,,7,11,11,11,2,1,0,1,0,0,,
,OverM,,11,11,11,11,2,1,0,1,0,0,,
,Sergee25,,9,12,11,11,2,1,0,1,0,0,,
,DonnyMacArth,,9,39,11,11,2,1,0,2,0,0,,
,Hippietrip,,4,26,11,11,2,1,0,1,0,0,,
,MadMan,,2,14,11,11,2,1,0,1,0,0,,
,Zhiga,,9,11,11,11,2,1,0,1,0,0,,
,davirozz,,8,37,11,11,2,1,0,2,0,0,,
,HaruhiSuzumiya,,6,11,11,11,2,1,0,1,0,0,,
,Resplandor,,12,52,11,11,2,1,0,2,0,0,,
,SheNut,,6,19,11,11,2,1,0,1,0,0,,
,Damaged Gadget,,11,10,10,10,3,0,0,0,0,0,,
,isaacfufu,,8,15,10,10,3,0,0,0,0,0,,
,Fiofan,,9,17,10,10,3,0,0,0,0,0,,
,axordahaxor,,7,10,10,10,3,0,0,0,0,0,,
,Have,,11,10,10,10,3,0,0,0,0,0,,
,aniccasankhara,,1,10,10,10,3,0,0,0,0,0,,
,SanchoHH,,8,10,10,10,3,0,0,0,0,0,,
,Excidium,,9,13,10,10,3,0,0,0,0,0,,
,Danbog,,7,11,10,10,3,0,0,0,0,0,,
,Kietelaar,,6,12,10,10,3,0,0,0,0,0,,
,Swen 122,,9,17,10,10,3,0,0,0,0,0,,
,AngryLookingGuy,,5,10,10,10,3,0,0,0,0,0,,
,Demon Party,,4,13,10,10,3,0,0,0,0,0,,
,idncrypto67,,10,20,10,10,3,0,0,0,0,0,,
,BuidloBagins,,11,10,10,10,3,0,0,0,0,0,,
,SniffOnMe,,12,12,10,10,3,0,0,0,0,0,,
,EdOnCouch,,11,10,10,10,3,0,0,0,0,0,,
,TheYndys,,1,10,10,10,3,0,0,0,0,0,,
,Lokilamadupa,,12,10,10,10,3,0,0,0,0,0,,
,Bobmynobster,,4,10,10,10,3,0,0,0,0,0,,
,(ÔΩ°‚ñºÁöø‚ñº),,8,16,10,10,3,0,0,0,0,0,,
,serthan,,9,16,10,10,3,0,0,0,0,0,,
,Cryptoflaneur,,3,10,10,10,3,0,0,0,0,0,,
,Prince,,10,10,10,10,3,0,0,0,0,0,,
,Yate,,6,12,10,10,3,0,0,0,0,0,,
,DeMoN666,,10,31,10,10,3,0,0,1,0,0,,
,Mlexon,,5,14,10,10,3,0,0,0,0,0,,
,TerribleJIexa,,9,10,10,10,3,0,0,0,0,0,,
,Oleg326756,,8,10,10,10,3,0,0,0,0,0,,
,ƒõƒùƒù∆ë∆°∆°∆¥∆°≈Ø≈àƒù,,9,10,10,10,3,0,0,0,0,0,,
,TheFireWithin,,11,10,10,10,3,0,0,0,0,0,,
,Marginal,,9,16,10,10,3,0,0,0,0,0,,
,mglmori,,8,19,10,10,3,0,0,0,0,0,,
,hERoIC15397,,12,30,10,10,3,0,0,1,0,0,,
,JamesPMiller,,9,10,10,10,3,0,0,0,0,0,,
,trollshock,,10,14,10,10,3,0,0,0,0,0,,
,Kolesiff,,12,22,9,9,3,0,0,0,0,0,,
,emiliomorles,,7,9,9,9,3,0,0,0,0,0,,
,Oxn,,9,9,9,9,3,0,0,0,0,0,,
,iluvsheep,,8,9,9,9,3,0,0,0,0,0,,
,WhiteWhale,,8,21,9,9,3,0,0,0,0,0,,
,Ê≠¶Â∞Ü,,10,9,9,9,3,0,0,0,0,0,,
,doudou2201,,10,12,9,9,3,0,0,0,0,0,,
,SpicoliAndreti,,7,9,9,9,3,0,0,0,0,0,,
,MAC,,6,9,9,9,3,0,0,0,0,0,,
,xanathos,,1,9,9,9,3,0,0,0,0,0,,
,Xiato,,8,9,9,9,3,0,0,0,0,0,,
,andrey_gol,,3,9,9,9,3,0,0,0,0,0,,
,RajhaTherma,,3,9,9,9,3,0,0,0,0,0,,
,skyenya1,,7,9,9,9,3,0,0,0,0,0,,
,monStar,,11,9,9,9,3,0,0,0,0,0,,
,[Mythic] Ducky,,12,9,9,9,3,0,0,0,0,0,,
,robotdeniro,,6,9,9,9,3,0,0,0,0,0,,
,plaakkon,,10,12,9,9,3,0,0,0,0,0,,
,ZhiBo,,7,16,9,9,3,0,0,0,0,0,,
,reterical,,11,8,8,8,3,0,0,0,0,0,,
,Tongero0,,1,8,8,8,3,0,0,0,0,0,,
,GV,,6,13,8,8,3,0,0,0,0,0,,
,Intergalactic,,6,8,8,8,3,0,0,0,0,0,,
,Sleeping Goat,,10,8,8,8,3,0,0,0,0,0,,
,Aadi1912,,7,8,8,8,3,0,0,0,0,0,,
,Sadness,,8,8,8,8,3,0,0,0,0,0,,
,sinhead83,,2,23,8,8,3,0,0,0,0,0,,
,Eliminator,,5,8,8,8,3,0,0,0,0,0,,
,Hm47goat,,5,8,8,8,3,0,0,0,0,0,,
,PaxMagnus,,11,8,8,8,3,0,0,0,0,0,,
,ogcubano,,1,10,8,8,3,0,0,0,0,0,,
,Tongeroo,,1,8,8,8,3,0,0,0,0,0,,
,Inmabeli,,8,8,8,8,3,0,0,0,0,0,,
,ra,,8,8,8,8,3,0,0,0,0,0,,
,AnusMundi,,8,8,8,8,3,0,0,0,0,0,,
,Rugdealer,,5,8,8,8,3,0,0,0,0,0,,
,Overlordtrial,,4,8,8,8,3,0,0,0,0,0,,
,KLMJ,,9,8,8,8,3,0,0,0,0,0,,
,Chain0tater,,7,8,8,8,3,0,0,0,0,0,,
,Bielobog,,8,9,8,8,3,0,0,0,0,0,,
,cicada,,7,37,8,8,3,0,0,1,0,0,,
,ILLGLORY,,7,45,8,8,3,0,0,1,0,0,,
,espina,,5,29,8,8,3,0,0,0,0,0,,
,Yogalholic,,7,8,8,8,3,0,0,0,0,0,,
,longdarth,,11,16,8,8,3,0,0,0,0,0,,
,JimmyBeaver,,7,8,8,8,3,0,0,0,0,0,,
,trance,,6,8,8,8,3,0,0,0,0,0,,
,coSMIX,,8,8,8,8,3,0,0,0,0,0,,
,kovanova,,9,8,8,8,3,0,0,0,0,0,,
,Odaja,,7,8,8,8,3,0,0,0,0,0,,
,cistrans,,6,8,8,8,3,0,0,0,0,0,,
,Yell,,8,7,7,7,2,0,0,0,0,0,,
,NAGIBATOR,,9,7,7,7,2,0,0,0,0,0,,
,Yavorlee,,1,7,7,7,2,0,0,0,0,0,,
,pauk6666,,7,7,7,7,2,0,0,0,0,0,,
,chilltown,,7,7,7,7,2,0,0,0,0,0,,
,Stregavax,,5,7,7,7,2,0,0,0,0,0,,
,eskoll899,,1,7,7,7,2,0,0,0,0,0,,
,Hexis023,,3,9,7,7,2,0,0,0,0,0,,
,nihao888,,8,7,7,7,2,0,0,0,0,0,,
,PlinytheEther,,10,7,7,7,2,0,0,0,0,0,,
,Lifeboy,,10,7,7,7,2,0,0,0,0,0,,
,Olymp,,5,7,7,7,2,0,0,0,0,0,,
,Kolledaboss,,8,7,7,7,2,0,0,0,0,0,,
,Redguard,,1,30,7,7,2,0,0,1,0,0,,
,flarbman,,3,7,7,7,2,0,0,0,0,0,,
,freedom2020,,7,7,7,7,2,0,0,0,0,0,,
,CryptoHype,,4,7,7,7,2,0,0,0,0,0,,
,M.o.D,,7,22,7,7,2,0,0,0,0,0,,
,jbrocket,,3,7,7,7,2,0,0,0,0,0,,
,MagicOwl,,2,69,7,7,2,0,0,1,0,0,,
,PrinceH,,8,7,7,7,2,0,0,0,0,0,,
,–ì—Ä—É–º–≤–æ–ª,,12,7,7,7,2,0,0,0,0,0,,
,Soothio1,,1,7,7,7,2,0,0,0,0,0,,
,Mice Elf,,7,7,7,7,2,0,0,0,0,0,,
,Apexlion,,8,7,7,7,2,0,0,0,0,0,,
,yo.achim,,7,11,7,7,2,0,0,0,0,0,,
,Des Petrovich,,9,7,7,7,2,0,0,0,0,0,,
,Surface2AirMissle,,10,7,7,7,2,0,0,0,0,0,,
,ZENIMOON,,11,6,6,6,2,0,0,0,0,0,,
,Soleone,,9,6,6,6,2,0,0,0,0,0,,
,Shunkaid,,1,6,6,6,2,0,0,0,0,0,,
,BakaWaifu666,,11,6,6,6,2,0,0,0,0,0,,
,OllyRenard,,7,6,6,6,2,0,0,0,0,0,,
,Chapsohn,,1,6,6,6,2,0,0,0,0,0,,
,kandwarf,,6,14,6,6,2,0,0,0,0,0,,
,goldemon,,8,6,6,6,2,0,0,0,0,0,,
,naiden39,,5,6,6,6,2,0,0,0,0,0,,
,KaliDestro,,5,29,6,6,2,0,0,0,0,0,,
,[Twitch4Fun] Kaeserotor,,12,6,6,6,2,0,0,0,0,0,,
,Acecompac,,6,6,6,6,2,0,0,0,0,0,,
,WildCard0341,,8,6,6,6,2,0,0,0,0,0,,
,Y8Z,,8,6,6,6,2,0,0,0,0,0,,
,Jahura_Banu,,7,16,6,6,2,0,0,0,0,0,,
,CryptoEEra,,9,6,6,6,2,0,0,0,0,0,,
,SnoozeDragon,,6,8,6,6,2,0,0,0,0,0,,
,Returner,,10,6,6,6,2,0,0,0,0,0,,
,ezimedia,,5,6,6,6,2,0,0,0,0,0,,
,marukaziri,,8,6,6,6,2,0,0,0,0,0,,
,whitefly,,3,6,6,6,2,0,0,0,0,0,,
,aeaon,,5,6,6,6,2,0,0,0,0,0,,
,hitseven,,3,6,6,6,2,0,0,0,0,0,,
,Coldsnap,,11,6,6,6,2,0,0,0,0,0,,
,Lollerskates,,8,5,5,5,2,0,0,0,0,0,,
,Bartuni,,10,5,5,5,2,0,0,0,0,0,,
,a29654776,,9,5,5,5,2,0,0,0,0,0,,
,ulcus,,8,5,5,5,2,0,0,0,0,0,,
,WOLFPT,,5,12,5,5,2,0,0,0,0,0,,
,reachy,,8,5,5,5,2,0,0,0,0,0,,
,Wakil Rakyat,,1,5,5,5,2,0,0,0,0,0,,
,F1rst,,11,5,5,5,2,0,0,0,0,0,,
,Nanich,,7,5,5,5,2,0,0,0,0,0,,
,&,,8,5,5,5,2,0,0,0,0,0,,
,mawichan04,,5,5,5,5,2,0,0,0,0,0,,
,ghostrestaurantlab_inago,,9,5,5,5,2,0,0,0,0,0,,
,MasterMirror,,9,5,5,5,2,0,0,0,0,0,,
,Sonick10,,3,5,5,5,2,0,0,0,0,0,,
,shadowstrike42,,7,5,5,5,2,0,0,0,0,0,,
,trakzenator,,6,5,5,5,2,0,0,0,0,0,,
,yodasoja,,6,5,5,5,2,0,0,0,0,0,,
,Yostari,,8,5,5,5,2,0,0,0,0,0,,
,GazzaMine,,4,5,5,5,2,0,0,0,0,0,,
,Santana,,4,5,5,5,2,0,0,0,0,0,,
,BancoDeCrypto,,7,5,5,5,2,0,0,0,0,0,,
,DisgustingHuman,,8,5,5,5,2,0,0,0,0,0,,
,Utar Vicar of Pebbles,,7,5,5,5,2,0,0,0,0,0,,
,pokerbjj,,6,5,5,5,2,0,0,0,0,0,,
,bit_stan,,7,5,5,5,2,0,0,0,0,0,,
,bang39,,10,5,5,5,2,0,0,0,0,0,,
,MAXPAIN35,,4,5,5,5,2,0,0,0,0,0,,
,ZACHISNICE,,6,5,5,5,2,0,0,0,0,0,,
,arisho,,11,5,5,5,2,0,0,0,0,0,,
,Galgorath333,,4,5,5,5,2,0,0,0,0,0,,
,Master_Elliott,,4,5,5,5,2,0,0,0,0,0,,
,skankhunt42,,8,5,5,5,2,0,0,0,0,0,,
,AloVulpin,,6,4,4,4,1,0,0,0,0,0,,
,Ms. Tanith,,5,4,4,4,1,0,0,0,0,0,,
,Nyktimen√©,,7,4,4,4,1,0,0,0,0,0,,
,ill_coin,,6,4,4,4,1,0,0,0,0,0,,
,El Dios Desencadenado,,8,4,4,4,1,0,0,0,0,0,,
,PropanePanda,,3,4,4,4,1,0,0,0,0,0,,
,gesscuuu,,5,4,4,4,1,0,0,0,0,0,,
,Mr_*M*E*A*T*,,11,4,4,4,1,0,0,0,0,0,,
,furryballs,,8,4,4,4,1,0,0,0,0,0,,
,masanari,,7,4,4,4,1,0,0,0,0,0,,
,stachu,,8,4,4,4,1,0,0,0,0,0,,
,Leopan_1981,,1,4,4,4,1,0,0,0,0,0,,
,MuffinMonkey,,9,4,4,4,1,0,0,0,0,0,,
,Deus30Vult,,1,4,4,4,1,0,0,0,0,0,,
,gu.cards,,8,4,4,4,1,0,0,0,0,0,,
,bartek35,,1,9,4,4,1,0,0,0,0,0,,
,Dasrauscht,,6,4,4,4,1,0,0,0,0,0,,
,CyrusBlaze,,1,4,4,4,1,0,0,0,0,0,,
,Delucifer,,1,4,4,4,1,0,0,0,0,0,,
,Etxebe10,,1,4,4,4,1,0,0,0,0,0,,
,PuzzleMazl,,9,4,4,4,1,0,0,0,0,0,,
,sigfriedCrypto,,9,4,4,4,1,0,0,0,0,0,,
,Cerberus,,8,4,4,4,1,0,0,0,0,0,,
,edu0884,,5,4,4,4,1,0,0,0,0,0,,
,datoox09,,2,4,4,4,1,0,0,0,0,0,,
,.XXOTCXX.,,7,4,4,4,1,0,0,0,0,0,,
,alkibios,,7,4,4,4,1,0,0,0,0,0,,
,Fantasmita,,10,4,4,4,1,0,0,0,0,0,,
,Yurij,,9,4,4,4,1,0,0,0,0,0,,
,Alik_Boroda,,5,4,4,4,1,0,0,0,0,0,,
,blue&white,,1,4,4,4,1,0,0,0,0,0,,
,AlexFid,,5,4,4,4,1,0,0,0,0,0,,
,Magician,,7,4,4,4,1,0,0,0,0,0,,
,AgentOrange,,11,4,4,4,1,0,0,0,0,0,,
,Isildur,,12,4,4,4,1,0,0,0,0,0,,
,Blockfisher,,8,4,4,4,1,0,0,0,0,0,,
,JadedLight,,7,3,3,3,1,0,0,0,0,0,,
,drchronic01,,9,3,3,3,1,0,0,0,0,0,,
,PeterD,,8,3,3,3,1,0,0,0,0,0,,
,Mrchains,,1,3,3,3,1,0,0,0,0,0,,
,Ax-S.C.B,,4,3,3,3,1,0,0,0,0,0,,
,Ragnor8476,,9,3,3,3,1,0,0,0,0,0,,
,Blank Never Loses,,11,3,3,3,1,0,0,0,0,0,,
,coinage,,8,3,3,3,1,0,0,0,0,0,,
,donaldDuck,,1,3,3,3,1,0,0,0,0,0,,
,Lilac,,12,3,3,3,1,0,0,0,0,0,,
,Carlos_Silva,,1,3,3,3,1,0,0,0,0,0,,
,Achilles64,,3,3,3,3,1,0,0,0,0,0,,
,„ÅäÈáëÁå´,,10,3,3,3,1,0,0,0,0,0,,
,restb777,,9,3,3,3,1,0,0,0,0,0,,
,JaffyHigg,,3,3,3,3,1,0,0,0,0,0,,
,shadowstep33,,7,3,3,3,1,0,0,0,0,0,,
,Dontacore,,3,3,3,3,1,0,0,0,0,0,,
,$,,8,3,3,3,1,0,0,0,0,0,,
,Torggames,,4,3,3,3,1,0,0,0,0,0,,
,Souleyman,,1,3,3,3,1,0,0,0,0,0,,
,ThotHtheAtlanteaN,,8,3,3,3,1,0,0,0,0,0,,
,inklic,,1,3,3,3,1,0,0,0,0,0,,
,domvoj01,,6,3,3,3,1,0,0,0,0,0,,
,Ultra-Ice,,4,3,3,3,1,0,0,0,0,0,,
,Marthyrs,,7,3,3,3,1,0,0,0,0,0,,
,kb,,4,3,3,3,1,0,0,0,0,0,,
,OMNIPOTENT,,5,34,3,3,1,0,0,1,0,0,,
,Azazell,,5,3,3,3,1,0,0,0,0,0,,
,piyopiyoman,,8,3,3,3,1,0,0,0,0,0,,
,MasterKoaz85,,1,3,3,3,1,0,0,0,0,0,,
,AdventureStory,,5,3,3,3,1,0,0,0,0,0,,
,TenTon01,,8,3,3,3,1,0,0,0,0,0,,
,Babooshka,,4,3,3,3,1,0,0,0,0,0,,
,Mogwai Bubbles,,1,3,3,3,1,0,0,0,0,0,,
,rob31rob31,,10,3,3,3,1,0,0,0,0,0,,
,The Cleric,,3,3,3,3,1,0,0,0,0,0,,
,taurus1983,,4,3,3,3,1,0,0,0,0,0,,
,Snottysnake,,10,3,3,3,1,0,0,0,0,0,,
,Letsktor,,2,3,3,3,1,0,0,0,0,0,,
,Chaos23,,1,3,3,3,1,0,0,0,0,0,,
,Rievserg,,8,3,3,3,1,0,0,0,0,0,,
,[Taiga] VOLK,,11,3,3,3,1,0,0,0,0,0,,
,Drunkigan,,5,3,3,3,1,0,0,0,0,0,,
,CelestialWarrior,,1,3,3,3,1,0,0,0,0,0,,
,JMa14,,1,3,3,3,1,0,0,0,0,0,,
,Tsuran_men,,1,3,3,3,1,0,0,0,0,0,,
,Shinjiz,,9,3,3,3,1,0,0,0,0,0,,
,Elfo Strego,,6,3,3,3,1,0,0,0,0,0,,
,Valhalla,,8,3,3,3,1,0,0,0,0,0,,
,tengchiang,,9,2,2,2,0,0,0,0,0,0,,
,777mihman777,,9,2,2,2,0,0,0,0,0,0,,
,MrWikkid,,1,2,2,2,0,0,0,0,0,0,,
,BlocksUnchained,,10,2,2,2,0,0,0,0,0,0,,
,roman22,,1,2,2,2,0,0,0,0,0,0,,
,cirillo77,,5,2,2,2,0,0,0,0,0,0,,
,ronink77,,5,2,2,2,0,0,0,0,0,0,,
,Storm Toad,,7,2,2,2,0,0,0,0,0,0,,
,Hanri555,,11,2,2,2,0,0,0,0,0,0,,
,DaCatzMeow,,11,2,2,2,0,0,0,0,0,0,,
,Lighon,,7,2,2,2,0,0,0,0,0,0,,
,Rakalel,,7,2,2,2,0,0,0,0,0,0,,
,j3kakaka,,7,2,2,2,0,0,0,0,0,0,,
,Akiro,,7,2,2,2,0,0,0,0,0,0,,
,bobcryptolover,,6,2,2,2,0,0,0,0,0,0,,
,btz4u,,8,2,2,2,0,0,0,0,0,0,,
,Infincible,,1,2,2,2,0,0,0,0,0,0,,
,KingK,,3,2,2,2,0,0,0,0,0,0,,
,Syonidehyde1165,,4,2,2,2,0,0,0,0,0,0,,
,ThrawnOmega,,1,2,2,2,0,0,0,0,0,0,,
,loreennaa,,3,2,2,2,0,0,0,0,0,0,,
,blackford2,,1,2,2,2,0,0,0,0,0,0,,
,Blackhalo,,1,2,2,2,0,0,0,0,0,0,,
,striderbuster,,10,2,2,2,0,0,0,0,0,0,,
,snak3.eth,,4,2,2,2,0,0,0,0,0,0,,
,HAL Empire,,8,2,2,2,0,0,0,0,0,0,,
,Juanita7,,3,2,2,2,0,0,0,0,0,0,,
,jcrypto,,3,2,2,2,0,0,0,0,0,0,,
,KamilGlab,,3,2,2,2,0,0,0,0,0,0,,
,ReidulousKane,,4,2,2,2,0,0,0,0,0,0,,
,artur795,,1,2,2,2,0,0,0,0,0,0,,
,Mephisto,,1,2,2,2,0,0,0,0,0,0,,
,Sp!r!tmonger,,8,2,2,2,0,0,0,0,0,0,,
,JustGuardian,,1,2,2,2,0,0,0,0,0,0,,
,bacoor  hbwallet,,7,2,2,2,0,0,0,0,0,0,,
,Mortal,,7,2,2,2,0,0,0,0,0,0,,
,Alice,,1,2,2,2,0,0,0,0,0,0,,
,Tafut Aga,,5,2,2,2,0,0,0,0,0,0,,
,D0r1n0123,,1,2,2,2,0,0,0,0,0,0,,
,Tamerlan,,7,2,2,2,0,0,0,0,0,0,,
,seedlingqueen,,1,2,2,2,0,0,0,0,0,0,,
,Acusticos,,2,2,2,2,0,0,0,0,0,0,,
,Anaxamander,,8,2,2,2,0,0,0,0,0,0,,
,Xboot,,7,2,2,2,0,0,0,0,0,0,,
,HappyMan811,,4,2,2,2,0,0,0,0,0,0,,
,jiiiklikli,,7,2,2,2,0,0,0,0,0,0,,
,quokku,,10,2,2,2,0,0,0,0,0,0,,
,finansisn,,9,2,2,2,0,0,0,0,0,0,,
,RETRIPPER,,8,2,2,2,0,0,0,0,0,0,,
,Pyron,,4,2,2,2,0,0,0,0,0,0,,
,JPK,,10,2,2,2,0,0,0,0,0,0,,
,Crazy_Goober,,4,2,2,2,0,0,0,0,0,0,,
,Sillyconchain,,4,2,2,2,0,0,0,0,0,0,,
,Bitsavage,,5,2,2,2,0,0,0,0,0,0,,
,SteelRat,,12,2,2,2,0,0,0,0,0,0,,
,yottAholic,,1,2,2,2,0,0,0,0,0,0,,
,Zenic11,,4,1,1,1,0,0,0,0,0,0,,
,EtherKnight,,8,1,1,1,0,0,0,0,0,0,,
,Edgecaser,,10,1,1,1,0,0,0,0,0,0,,
,Teemo,,9,1,1,1,0,0,0,0,0,0,,
,evas,,3,1,1,1,0,0,0,0,0,0,,
,blasinho,,8,1,1,1,0,0,0,0,0,0,,
,Taishi,,4,1,1,1,0,0,0,0,0,0,,
,cambocleve,,9,1,1,1,0,0,0,0,0,0,,
,chnoblidan,,9,1,1,1,0,0,0,0,0,0,,
,Vasitocoin,,2,1,1,1,0,0,0,0,0,0,,
,CryptoJoueur,,7,1,1,1,0,0,0,0,0,0,,
,Frehalo1,,1,1,1,1,0,0,0,0,0,0,,
,prism610,,1,1,1,1,0,0,0,0,0,0,,
,DthRevan,,8,1,1,1,0,0,0,0,0,0,,
,Avatar1188,,4,1,1,1,0,0,0,0,0,0,,
,crystalhuman,,6,1,1,1,0,0,0,0,0,0,,
,futuremars051,,8,1,1,1,0,0,0,0,0,0,,
,gruberx!,,7,1,1,1,0,0,0,0,0,0,,
,facugaba04,,5,1,1,1,0,0,0,0,0,0,,
,Xafarius,,1,1,1,1,0,0,0,0,0,0,,
,*-M4rc0-*,,2,1,1,1,0,0,0,0,0,0,,
,MaestroGR,,8,1,1,1,0,0,0,0,0,0,,
,Tinkode,,1,1,1,1,0,0,0,0,0,0,,
,MasterMuze,,2,1,1,1,0,0,0,0,0,0,,
,AmericanIcarus,,8,1,1,1,0,0,0,0,0,0,,
,WilliamLee,,8,1,1,1,0,0,0,0,0,0,,
,Noldziks,,1,1,1,1,0,0,0,0,0,0,,
,Zzodiacz,,7,1,1,1,0,0,0,0,0,0,,
,xvaimC70,,1,1,1,1,0,0,0,0,0,0,,
,AdrianoMeis,,1,1,1,1,0,0,0,0,0,0,,
,Hastal Havista,,6,1,1,1,0,0,0,0,0,0,,
,phatsoicp,,1,1,1,1,0,0,0,0,0,0,,
,thesaintstreams,,1,1,1,1,0,0,0,0,0,0,,
,FriendlySpy,,8,1,1,1,0,0,0,0,0,0,,
,The Book,,9,1,1,1,0,0,0,0,0,0,,
,Aleksea222,,1,1,1,1,0,0,0,0,0,0,,
,gothmaug,,10,1,1,1,0,0,0,0,0,0,,
,NotMyName,,1,1,1,1,0,0,0,0,0,0,,
,ThyWizardOz,,1,1,1,1,0,0,0,0,0,0,,
,Credo1986,,7,1,1,1,0,0,0,0,0,0,,
,BlueBeard,,3,1,1,1,0,0,0,0,0,0,,
,mitkolukanov,,1,1,1,1,0,0,0,0,0,0,,
,PlasticCarrot,,5,1,1,1,0,0,0,0,0,0,,
,Alexis,,9,1,1,1,0,0,0,0,0,0,,
,QuinnBear,,11,1,1,1,0,0,0,0,0,0,,
,radi,,12,1,1,1,0,0,0,0,0,0,,
,Kojiroad,,6,1,1,1,0,0,0,0,0,0,,
,Matschi300,,3,1,1,1,0,0,0,0,0,0,,
,FailMan XXL,,1,1,1,1,0,0,0,0,0,0,,
,blakyeltoro,,6,1,1,1,0,0,0,0,0,0,,
,GJGaruda,,1,1,1,1,0,0,0,0,0,0,,
,EmilED358,,1,1,1,1,0,0,0,0,0,0,,
,Jashby1997,,11,1,1,1,0,0,0,0,0,0,,
,strange,,5,1,1,1,0,0,0,0,0,0,,
,mike0182,,10,1,1,1,0,0,0,0,0,0,,
,ShinChan,,1,1,1,1,0,0,0,0,0,0,,
,wiim,,6,1,1,1,0,0,0,0,0,0,,
,Cro-JayJay,,1,1,1,1,0,0,0,0,0,0,,
,FraudulentFree,,1,1,1,1,0,0,0,0,0,0,,
,Fan_1922,,5,1,1,1,0,0,0,0,0,0,,
,„Åü„Åì,,12,1,1,1,0,0,0,0,0,0,,
,fwibb.jmm,,5,1,1,1,0,0,0,0,0,0,,
,Bayou-Bengal,,8,1,1,1,0,0,0,0,0,0,,
,UnjustOne,,12,1,1,1,0,0,0,0,0,0,,
,Romulus10,,1,1,1,1,0,0,0,0,0,0,,
,PeriodBloodMouthWash,,7,1,1,1,0,0,0,0,0,0,,
,MrTUNER,,5,1,1,1,0,0,0,0,0,0,,
,Moneybags,,9,1,1,1,0,0,0,0,0,0,,
,POOKIDS420,,5,1,1,1,0,0,0,0,0,0,,
,knox,,4,1,1,1,0,0,0,0,0,0,,
,onlys,,6,1,1,1,0,0,0,0,0,0,,
,Dochrnix,,8,1,1,1,0,0,0,0,0,0,,
,CaptainMurika,,6,1,1,1,0,0,0,0,0,0,,
,TheDutchDude,,7,1,1,1,0,0,0,0,0,0,,
,bwindi,,6,1,1,1,0,0,0,0,0,0,,
,chaoren,,12,1,1,1,0,0,0,0,0,0,,
,Varick,,9,1,1,1,0,0,0,0,0,0,,
,Noice,,8,1,1,1,0,0,0,0,0,0,,
,MaxMatheus,,8,1,1,1,0,0,0,0,0,0,,
,takeshi7,,1,1,1,1,0,0,0,0,0,0,,
,Ninjaturtle,,9,1,1,1,0,0,0,0,0,0,,
,Zappaboy,,8,1,1,1,0,0,0,0,0,0,,
,[GOATGang]nelyp,,6,1,1,1,0,0,0,0,0,0,,
,Aziekial,,10,1,1,1,0,0,0,0,0,0,,
,GL1TCH,,8,1,1,1,0,0,0,0,0,0,,
,dr-nuker,,4,1,1,1,0,0,0,0,0,0,,
,Pmoisenko07@gmail.com,,1,1,1,1,0,0,0,0,0,0,,
,„É≠„Åï„Çì,,10,1,1,1,0,0,0,0,0,0,,
,Y-crad11,,1,1,1,1,0,0,0,0,0,0,,
,CryptoAtlas,,7,1,1,1,0,0,0,0,0,0,,
,CountPenta,,1,1,1,1,0,0,0,0,0,0,,