,Username,Place,Peak Rating,Wins,Wins in first 25,Counted Wins,Core Rare,Core Epic,Core Legendary,Trial Rare,Trial Epic,Trial Legendary,,
Elite Tier,Wilderness,1,1541.046784,23,22,22,0,0,2,0,0,3,,"""Counted wins"" are either the total number of wins a player earned, or their maximum allowed for prizes based on the rank they had at the end of their 25th game during the event."
Leaderboard,Mirage88,2,1505.061248,87,22,22,0,0,2,0,1,2,,
,„ÅÇ,3,1493.08992,22,22,22,0,0,2,0,0,2,,
,TheHassy,4,1503.555136,21,21,21,0,1,1,0,0,2,,
,Ayo,5,1503.04,21,21,21,0,0,1,0,0,2,,
,Nonchan,6,1510.829792,32,20,20,0,0,1,0,1,1,,
,Resonator,7,1492.061312,20,20,20,0,0,1,0,0,1,,
,Fantomasek,8,1486.757728,38,20,20,0,0,0,0,1,1,,
,Gandalf,9,1477.329472,42,20,20,0,1,0,0,0,1,,
,·ºåœÅŒ∑œÇ,10,1477.278592,20,20,20,0,0,0,0,0,1,,
,,,,,,,,,,,,,,
,Username,,Rank,Wins,Wins in first 25,Counted Wins,Core Rare,Core Epic,Core Legendary,Trial Rare,Trial Epic,Trial Legendary,,
,Wilderness,,12,23,22,22,0,0,3,0,0,2,,
,Mirage88,,12,87,22,22,0,0,3,1,0,2,,
,„ÅÇ,,12,22,22,22,0,0,3,0,0,2,,
,Demons,,11,58,21,21,0,0,2,1,2,1,,
Complete,Ayo,,12,21,21,21,0,0,2,0,2,1,,
Weekend,TheHassy,,12,21,21,21,0,0,2,0,2,1,,
Ranked,Resonator,,12,20,20,20,0,1,1,1,1,1,,
(Includes,Gandalf,,12,42,20,20,0,1,1,2,1,1,,
Bonus Prizes,Nonchan,,12,32,20,20,0,1,1,2,1,1,,
for 30 Wins),·ºåœÅŒ∑œÇ,,12,20,20,20,0,1,1,1,1,1,,
,‚†Är3hab,,12,20,20,20,0,1,1,1,1,1,,
,Fantomasek,,12,38,20,20,0,1,1,2,1,1,,
,Wezz,,12,30,19,19,0,2,1,1,2,0,,
,V-Hirvi,,12,31,19,19,0,2,1,1,2,0,,
,[Pulse] Aldoc,,11,19,19,19,0,2,1,0,2,0,,
,SniffOnMe,,12,21,19,19,0,2,1,0,2,0,,
,[tst]cautionfun,,12,30,19,19,0,2,1,1,2,0,,
,someonesomeone,,12,19,19,19,0,2,1,0,2,0,,
,–Ω–æ–≥–æ–æ–Ω–∑–∞–ª—É—É,,12,19,19,19,0,2,1,0,2,0,,
,Ares,,9,35,18,18,0,3,0,1,2,0,,
,[tst]themudman,,12,48,18,18,0,3,0,1,2,0,,
,Veloth,,12,22,18,18,0,3,0,0,2,0,,
,trilldebeest,,9,18,18,18,0,3,0,0,2,0,,
,roytutu,,11,30,18,18,0,3,0,1,2,0,,
,flex13,,12,30,18,18,0,3,0,1,2,0,,
,Pidda1994,,8,17,17,17,1,2,0,0,2,0,,
,Cindy,,9,17,17,17,1,2,0,0,2,0,,
,CryptoJoueur,,8,19,19,17,1,2,0,0,2,0,,
,"Êº¢Â≠ó, Ê±âÂ≠ó",,8,18,18,17,1,2,0,0,2,0,,
,Moonpig,,10,18,17,17,1,2,0,0,2,0,,
,X √Ü A-12,,8,20,18,17,1,2,0,0,2,0,,
,cholzgu,,8,35,17,17,1,2,0,1,2,0,,
,ZEALOT,,8,17,17,17,1,2,0,0,2,0,,
,üòé,,12,17,17,17,1,2,0,0,2,0,,
,raz0r,,8,18,18,17,1,2,0,0,2,0,,
,[F2P] Mythic Unchain NCP,,9,59,17,17,1,2,0,1,2,0,,
,Charles Utkins,,12,18,17,17,1,2,0,0,2,0,,
,Kinch,,11,26,17,17,1,2,0,0,2,0,,
,PleaseDontRope,,8,17,17,17,1,2,0,0,2,0,,
,ƒõƒùƒù∆ë∆°∆°∆¥∆°≈Ø≈àƒù,,8,18,17,17,1,2,0,0,2,0,,
,Xpwao,,8,30,17,17,1,2,0,1,2,0,,
,sparky,,10,57,17,17,1,2,0,1,2,0,,
,Hellicon,,9,18,17,17,1,2,0,0,2,0,,
,[tst]bonkthatbutt,,12,18,17,17,1,2,0,0,2,0,,
,zlaxor,,12,20,17,17,1,2,0,0,2,0,,
,CopperPitch,,12,20,17,17,1,2,0,0,2,0,,
,„Éô„ÉÉ„ÇØ,,11,30,17,17,1,2,0,1,2,0,,
,Surface2AirMissle,,9,17,17,17,1,2,0,0,2,0,,
,ZENIMOON,,10,17,16,16,0,3,0,1,1,0,,
,Tripel_Ix,,7,17,17,16,0,3,0,1,1,0,,
,Bumboklaat,,8,16,16,16,0,3,0,1,1,0,,
,Apollo,,12,22,16,16,0,3,0,1,1,0,,
,Excidium,,8,16,16,16,0,3,0,1,1,0,,
,„Ç∂„Éè„Éº„Éâ,,12,30,16,16,0,3,0,2,1,0,,
,gohm,,9,16,16,16,0,3,0,1,1,0,,
,[tst] Unchained Fan,,12,16,16,16,0,3,0,1,1,0,,
,Slackov,,11,17,16,16,0,3,0,1,1,0,,
,ValBelair,,8,16,16,16,0,3,0,1,1,0,,
,‰∏âÂçÅÂÖ´,,12,16,16,16,0,3,0,1,1,0,,
,Ckastigador,,12,30,16,16,0,3,0,2,1,0,,
,Oxn,,8,21,16,16,0,3,0,1,1,0,,
,[Mythic] revan,,12,17,16,16,0,3,0,1,1,0,,
,iluvbitcoins,,7,17,17,16,0,3,0,1,1,0,,
,TheRabbitRun,,7,18,17,16,0,3,0,1,1,0,,
,rare,,12,17,16,16,0,3,0,1,1,0,,
,TheNachoSamurai,,12,37,16,16,0,3,0,2,1,0,,
,wic3x5,,7,17,16,16,0,3,0,1,1,0,,
,Starry Ninja,,7,16,16,16,0,3,0,1,1,0,,
,densdensdens,,8,16,16,16,0,3,0,1,1,0,,
,Sir Tango,,12,17,16,16,0,3,0,1,1,0,,
,BlackMagic,,12,33,16,16,0,3,0,2,1,0,,
,slivenec,,7,19,18,16,0,3,0,1,1,0,,
,KLMJ,,8,16,16,16,0,3,0,1,1,0,,
,RavenGuard,,12,16,16,16,0,3,0,1,1,0,,
,–ì—Ä—É–º–≤–æ–ª,,12,16,16,16,0,3,0,1,1,0,,
,◊©◊ú◊ô◊û◊ñ◊ú,,12,16,16,16,0,3,0,1,1,0,,
,[Taiga] VOLK,,11,19,16,16,0,3,0,1,1,0,,
,VonMises,,11,27,16,16,0,3,0,1,1,0,,
,DrippSinatra,,8,23,16,16,0,3,0,1,1,0,,
,MustangKirby,,8,34,16,16,0,3,0,2,1,0,,
,Lysander,,12,31,16,16,0,3,0,2,1,0,,
,Scuffle,,12,16,16,16,0,3,0,1,1,0,,
,‰∏ÉÊúàÂçÅÊó•,,12,16,16,16,0,3,0,1,1,0,,
,allstarrunner,,6,16,16,15,1,2,0,2,0,0,,
,Akilsainon,,11,15,15,15,1,2,0,2,0,0,,
,Bozie,,5,20,15,15,1,2,0,2,0,0,,
,[F2P]BonkNCP,,12,15,15,15,1,2,0,2,0,0,,
,GodhookzTTV,,5,73,15,15,1,2,0,3,0,0,,
,PooNaniHunter,,8,22,15,15,1,2,0,2,0,0,,
,dobindubas,,6,16,16,15,1,2,0,2,0,0,,
,Cananopie,,8,18,15,15,1,2,0,2,0,0,,
,Drummerboyj,,10,15,15,15,1,2,0,2,0,0,,
,„Ç¢„Éà„É™,,12,15,15,15,1,2,0,2,0,0,,
,Prince,,9,19,15,15,1,2,0,2,0,0,,
,[Mythic] GGian,,12,31,15,15,1,2,0,3,0,0,,
,Waikikamukau,,11,23,15,15,1,2,0,2,0,0,,
,freaky44,,8,15,15,15,1,2,0,2,0,0,,
,cicada,,8,33,15,15,1,2,0,3,0,0,,
,AwesomeSparkly,,8,15,15,15,1,2,0,2,0,0,,
,Returner,,10,15,15,15,1,2,0,2,0,0,,
,F√´anor,,5,49,17,15,1,2,0,3,0,0,,
,Elyon,,11,23,15,15,1,2,0,2,0,0,,
,‚úú,,12,16,15,15,1,2,0,2,0,0,,
,Dave,,9,39,15,15,1,2,0,3,0,0,,
,Sameersh,,5,22,15,15,1,2,0,2,0,0,,
,JMa14,,5,20,16,15,1,2,0,2,0,0,,
,theboogyman,,8,17,15,15,1,2,0,2,0,0,,
,Resplandor,,9,18,15,15,1,2,0,2,0,0,,
,‚åÄ,,6,16,16,15,1,2,0,2,0,0,,
,Kolesiff,,12,23,14,14,1,2,0,2,0,0,,
,ulcus,,7,38,14,14,1,2,0,3,0,0,,
,Saint777,,12,14,14,14,1,2,0,2,0,0,,
,TREY,,12,15,14,14,1,2,0,2,0,0,,
,Dactar,,8,14,14,14,1,2,0,2,0,0,,
,Kietelaar,,6,30,14,14,1,2,0,3,0,0,,
,rl958,,12,14,14,14,1,2,0,2,0,0,,
,superslim,,8,28,14,14,1,2,0,2,0,0,,
,jnew00,,6,14,14,14,1,2,0,2,0,0,,
,shaleby_,,5,14,14,14,1,2,0,2,0,0,,
,Pesaac2020,,8,25,14,14,1,2,0,2,0,0,,
,È≠îjunior,,12,15,14,14,1,2,0,2,0,0,,
,0x7d31apuz,,9,30,14,14,1,2,0,3,0,0,,
,carebear,,12,14,14,14,1,2,0,2,0,0,,
,vogimania,,8,19,14,14,1,2,0,2,0,0,,
,Hypnotic,,8,14,14,14,1,2,0,2,0,0,,
,MasterMirror,,9,15,14,14,1,2,0,2,0,0,,
,smirnawf,,9,14,14,14,1,2,0,2,0,0,,
,inklic,,6,31,14,14,1,2,0,3,0,0,,
,GodMode,,7,14,14,14,1,2,0,2,0,0,,
,„Ç≠„ÉÑ„Éç„ÅÆÂè´„Å≥,,12,14,14,14,1,2,0,2,0,0,,
,doudou2201,,8,17,14,14,1,2,0,2,0,0,,
,ProAndyKiller,,8,14,14,14,1,2,0,2,0,0,,
,noteboom,,12,14,14,14,1,2,0,2,0,0,,
,TenTon01,,5,14,14,14,1,2,0,2,0,0,,
,ü§°,,12,14,14,14,1,2,0,2,0,0,,
,≈Ω≈Ω≈Ω,,8,40,14,14,1,2,0,3,0,0,,
,„Åü„Åì,,11,14,14,14,1,2,0,2,0,0,,
,Fantasmita,,9,15,14,14,1,2,0,2,0,0,,
,Easycake001,,7,18,14,14,1,2,0,2,0,0,,
,sczi*987,,5,14,14,14,1,2,0,2,0,0,,
,[F2P] notfreedan NCP,,12,14,14,14,1,2,0,2,0,0,,
,blacksad,,11,14,14,14,1,2,0,2,0,0,,
,LetMeLive,,12,19,14,14,1,2,0,2,0,0,,
,ScrMcDuck,,12,14,14,14,1,2,0,2,0,0,,
,Ëá™ÁÑ∂,,12,30,14,14,1,2,0,3,0,0,,
,robotdeniro,,5,14,14,14,1,2,0,2,0,0,,
,Jimmer,,10,14,14,14,1,2,0,2,0,0,,
,Jayshawn,,8,14,14,14,1,2,0,2,0,0,,
,Paradime,,9,24,14,14,1,2,0,2,0,0,,
,finansisn,,8,14,14,14,1,2,0,2,0,0,,
,Androssi,,8,14,14,14,1,2,0,2,0,0,,
,SpaceCoastKook,,12,18,14,14,1,2,0,2,0,0,,
,other,,3,38,16,13,2,1,0,2,0,0,,
,Deil713009,,5,14,13,13,2,1,0,1,0,0,,
,Gordon Shumway,,1,14,14,13,2,1,0,1,0,0,,
,Ax-S.C.B,,3,16,14,13,2,1,0,1,0,0,,
,coinage,,8,14,13,13,2,1,0,1,0,0,,
,gesscuuu,,4,16,14,13,2,1,0,1,0,0,,
,dad,,6,16,13,13,2,1,0,1,0,0,,
,Cryptolemon,,12,13,13,13,2,1,0,1,0,0,,
,reachy,,9,13,13,13,2,1,0,1,0,0,,
,sadisteck,,11,13,13,13,2,1,0,1,0,0,,
,Tiannizu,,11,25,13,13,2,1,0,1,0,0,,
,Inneluki,,1,37,16,13,2,1,0,2,0,0,,
,sensebe,,11,48,13,13,2,1,0,2,0,0,,
,Krumpy Lumpkins,,12,60,13,13,2,1,0,2,0,0,,
,Shibanqk,,11,19,13,13,2,1,0,1,0,0,,
,TheModestThief,,2,47,16,13,2,1,0,2,0,0,,
,Wasper,,12,23,13,13,2,1,0,1,0,0,,
,Johnny Janglez,,3,22,17,13,2,1,0,1,0,0,,
,LCHammer,,12,22,13,13,2,1,0,1,0,0,,
,WhiteWhale,,6,16,13,13,2,1,0,1,0,0,,
,Cerne,,12,13,13,13,2,1,0,1,0,0,,
,Syrup17,,5,18,13,13,2,1,0,1,0,0,,
,immaterial,,5,20,13,13,2,1,0,1,0,0,,
,„ÉÄ„É©„Çπ„Éê„Éº,,11,13,13,13,2,1,0,1,0,0,,
,sigfriedCrypto,,9,51,13,13,2,1,0,2,0,0,,
,RedDeath,,10,13,13,13,2,1,0,1,0,0,,
,Oblongfitzoblong,,11,17,13,13,2,1,0,1,0,0,,
,rikuchof63,,1,26,15,13,2,1,0,1,0,0,,
,Sir Ike Moesha Broflovski,,9,30,13,13,2,1,0,2,0,0,,
,Chaos23,,1,21,21,13,2,1,0,1,0,0,,
,korencio,,1,13,13,13,2,1,0,1,0,0,,
,luthfi9999,,3,13,13,13,2,1,0,1,0,0,,
,dmitrij93,,1,34,19,13,2,1,0,2,0,0,,
,TheFireWithin,,12,13,13,13,2,1,0,1,0,0,,
,DiegoFerreL,,12,30,13,13,2,1,0,2,0,0,,
,[Mythic] Ducky,,12,13,13,13,2,1,0,1,0,0,,
,Aragon,,12,31,13,13,2,1,0,2,0,0,,
,Boganis,,3,14,14,13,2,1,0,1,0,0,,
,Ungulate-NCP,,12,14,13,13,2,1,0,1,0,0,,
,PastRelyks,,1,16,16,13,2,1,0,1,0,0,,
,Thirdman,,8,13,13,13,2,1,0,1,0,0,,
,Odaja,,7,14,13,13,2,1,0,1,0,0,,
,cjmoles,,8,13,13,13,2,1,0,1,0,0,,
,tygerson2,,3,13,13,13,2,1,0,1,0,0,,
,Makakka,,10,13,12,12,2,1,0,1,0,0,,
,Yell,,5,14,12,12,2,1,0,1,0,0,,
,gantarisa,,7,12,12,12,2,1,0,1,0,0,,
,¬≤¬≥,,11,12,12,12,2,1,0,1,0,0,,
,LegndRicky,,8,15,12,12,2,1,0,1,0,0,,
,kigawakunto27,,12,12,12,12,2,1,0,1,0,0,,
,Lucky,,6,12,12,12,2,1,0,1,0,0,,
,idncrypto67,,9,37,12,12,2,1,0,2,0,0,,
,LatteBicDic,,6,12,12,12,2,1,0,1,0,0,,
,ss,,5,12,12,12,2,1,0,1,0,0,,
,mahkoyu5143,,11,12,12,12,2,1,0,1,0,0,,
,Intergalactic,,7,17,12,12,2,1,0,1,0,0,,
,TheYndys,,6,15,12,12,2,1,0,1,0,0,,
,[Mythic] Dragonstorm,,12,30,12,12,2,1,0,2,0,0,,
,Longy,,12,30,12,12,2,1,0,2,0,0,,
,bs241111,,7,15,12,12,2,1,0,1,0,0,,
,PlinytheEther,,10,12,12,12,2,1,0,1,0,0,,
,Alice_Unchained,,3,31,12,12,2,1,0,2,0,0,,
,(ÔΩ°‚ñºÁöø‚ñº),,7,19,12,12,2,1,0,1,0,0,,
,popovanton89,,12,12,12,12,2,1,0,1,0,0,,
,_fireartist,,8,12,12,12,2,1,0,1,0,0,,
,CaptainCola,,7,13,12,12,2,1,0,1,0,0,,
,OPEPEN-MAN,,9,12,12,12,2,1,0,1,0,0,,
,crypteco,,1,12,12,12,2,1,0,1,0,0,,
,Rugdealer,,4,12,12,12,2,1,0,1,0,0,,
,Chain0tater,,7,31,12,12,2,1,0,2,0,0,,
,SolarMkd,,12,31,12,12,2,1,0,2,0,0,,
,Rahzan89,,2,12,12,12,2,1,0,1,0,0,,
,ferzspb,,10,36,12,12,2,1,0,2,0,0,,
,–∞,,9,23,12,12,2,1,0,1,0,0,,
,skyenya1,,8,14,12,12,2,1,0,1,0,0,,
,GUDecks.com,,12,16,12,12,2,1,0,1,0,0,,
,Yogalholic,,6,14,12,12,2,1,0,1,0,0,,
,Salernik,,11,12,12,12,2,1,0,1,0,0,,
,Xile1985,,7,16,12,12,2,1,0,1,0,0,,
,rsrckt95,,1,12,12,12,2,1,0,1,0,0,,
,cryptoznewb,,12,13,12,12,2,1,0,1,0,0,,
,cistrans,,6,15,12,12,2,1,0,1,0,0,,
,suplantox,,5,15,12,12,2,1,0,1,0,0,,
,NAGIBATOR,,7,11,11,11,2,1,0,1,0,0,,
,agrimony,,8,11,11,11,2,1,0,1,0,0,,
,komatsuna,,1,25,11,11,2,1,0,1,0,0,,
,Jsteezy,,12,11,11,11,2,1,0,1,0,0,,
,Naaaaaaaaaas,,10,11,11,11,2,1,0,1,0,0,,
,DaCatzMeow,,9,12,11,11,2,1,0,1,0,0,,
,Swen 122,,8,12,11,11,2,1,0,1,0,0,,
,Nanich,,7,11,11,11,2,1,0,1,0,0,,
,CastorPollux,,12,13,11,11,2,1,0,1,0,0,,
,entling,,8,11,11,11,2,1,0,1,0,0,,
,Syonidehyde1165,,4,16,11,11,2,1,0,1,0,0,,
,OMNIPOTENT,,3,36,11,11,2,1,0,2,0,0,,
,LordDarktempler,,11,11,11,11,2,1,0,1,0,0,,
,Lord of Crypto,,8,11,11,11,2,1,0,1,0,0,,
,Ota Benga,,12,61,11,11,2,1,0,2,0,0,,
,√û,,12,11,11,11,2,1,0,1,0,0,,
,AMRLordCoins,,9,12,11,11,2,1,0,1,0,0,,
,jcsc1989,,9,11,11,11,2,1,0,1,0,0,,
,Glamlys,,10,11,11,11,2,1,0,1,0,0,,
,DisgustingHuman,,8,15,11,11,2,1,0,1,0,0,,
,KONA|GOLD,,12,26,11,11,2,1,0,1,0,0,,
,AlienWeapon,,8,11,11,11,2,1,0,1,0,0,,
,‰∏≠ÂõΩÈ±º,,11,11,11,11,2,1,0,1,0,0,,
,CannaBiene,,10,42,11,11,2,1,0,2,0,0,,
,DaikieRa,,7,12,11,11,2,1,0,1,0,0,,
,hiroppy,,10,11,11,11,2,1,0,1,0,0,,
,hERoIC15397,,12,16,11,11,2,1,0,1,0,0,,
,DonnyMacArth,,7,32,11,11,2,1,0,2,0,0,,
,jackow80,,8,38,11,11,2,1,0,2,0,0,,
,#WhiteStrikeüëåüèº,,8,13,11,11,2,1,0,1,0,0,,
,Mice Elf,,8,14,11,11,2,1,0,1,0,0,,
,longdarth,,11,17,11,11,2,1,0,1,0,0,,
,swimlane72,,12,15,11,11,2,1,0,1,0,0,,
,ZACHISNICE,,7,24,11,11,2,1,0,1,0,0,,
,JamesPMiller,,9,11,11,11,2,1,0,1,0,0,,
,Elfo Strego,,4,20,11,11,2,1,0,1,0,0,,
,BasVanSpanker,,12,16,11,11,2,1,0,1,0,0,,
,Des Petrovich,,8,11,11,11,2,1,0,1,0,0,,
,MarcheG,,5,11,10,10,3,0,0,0,0,0,,
,Damaged Gadget,,11,17,10,10,3,0,0,0,0,0,,
,El Dios Desencadenado,,7,10,10,10,3,0,0,0,0,0,,
,Chozami,,10,10,10,10,3,0,0,0,0,0,,
,Danbog,,7,10,10,10,3,0,0,0,0,0,,
,shadowstep33,,7,10,10,10,3,0,0,0,0,0,,
,(*^^*),,10,11,10,10,3,0,0,0,0,0,,
,∆â∆â∆â∆â,,7,16,10,10,3,0,0,0,0,0,,
,mattyesq,,10,11,10,10,3,0,0,0,0,0,,
,XSITE,,12,51,10,10,3,0,0,1,0,0,,
,Aadi1912,,8,10,10,10,3,0,0,0,0,0,,
,ThotHtheAtlanteaN,,8,13,10,10,3,0,0,0,0,0,,
,force_of_nature,,11,10,10,10,3,0,0,0,0,0,,
,Ultra-Ice,,5,10,10,10,3,0,0,0,0,0,,
,tyranoc4,,2,10,10,10,3,0,0,0,0,0,,
,‚ò∫,,10,50,10,10,3,0,0,1,0,0,,
,Kele,,9,15,10,10,3,0,0,0,0,0,,
,darkbluechain,,9,13,10,10,3,0,0,0,0,0,,
,Cryptoflaneur,,6,10,10,10,3,0,0,0,0,0,,
,verbalshadow,,10,10,10,10,3,0,0,0,0,0,,
,Inmabeli,,8,30,10,10,3,0,0,1,0,0,,
,CryptoEEra,,10,10,10,10,3,0,0,0,0,0,,
,Stede,,12,30,10,10,3,0,0,1,0,0,,
,coSMIX,,9,10,10,10,3,0,0,0,0,0,,
,Rvu_Vsem_Duplo,,9,10,10,10,3,0,0,0,0,0,,
,SheNut,,7,14,10,10,3,0,0,0,0,0,,
,drchronic01,,9,9,9,9,3,0,0,0,0,0,,
,Wl4nd3r,,1,34,9,9,3,0,0,1,0,0,,
,Yanicroft,,8,9,9,9,3,0,0,0,0,0,,
,Nbecerril53o,,5,9,9,9,3,0,0,0,0,0,,
,muhammad,,8,33,9,9,3,0,0,1,0,0,,
,nihao888,,8,9,9,9,3,0,0,0,0,0,,
,colliseum,,12,14,9,9,3,0,0,0,0,0,,
,Roberto23,,5,17,9,9,3,0,0,0,0,0,,
,BoUs1337,,1,25,9,9,3,0,0,0,0,0,,
,superman313,,12,9,9,9,3,0,0,0,0,0,,
,emiliomorles,,8,9,9,9,3,0,0,0,0,0,,
,Ê≠¶Â∞Ü,,9,9,9,9,3,0,0,0,0,0,,
,Naio,,7,9,9,9,3,0,0,0,0,0,,
,AdventureStory,,6,9,9,9,3,0,0,0,0,0,,
,Stoneward,,9,9,9,9,3,0,0,0,0,0,,
,SHINZON,,7,9,9,9,3,0,0,0,0,0,,
,Mlexon,,5,13,9,9,3,0,0,0,0,0,,
,Livingwish,,7,9,9,9,3,0,0,0,0,0,,
,OverM,,11,9,9,9,3,0,0,0,0,0,,
,SatChitAnanda,,8,28,9,9,3,0,0,0,0,0,,
,MagicOwl,,7,14,9,9,3,0,0,0,0,0,,
,Sergee25,,9,9,9,9,3,0,0,0,0,0,,
,superslim-NCP,,8,9,9,9,3,0,0,0,0,0,,
,Unique.Esprit,,9,9,9,9,3,0,0,0,0,0,,
,kovanova,,9,9,9,9,3,0,0,0,0,0,,
,Galgorath333,,6,9,9,9,3,0,0,0,0,0,,
,FSadinoX,,4,9,9,9,3,0,0,0,0,0,,
,skankhunt42,,9,9,9,9,3,0,0,0,0,0,,
,Fiofan,,9,8,8,8,3,0,0,0,0,0,,
,Spartakush,,7,8,8,8,3,0,0,0,0,0,,
,zkSnarky,,3,8,8,8,3,0,0,0,0,0,,
,GV,,5,8,8,8,3,0,0,0,0,0,,
,Lifeboy,,9,8,8,8,3,0,0,0,0,0,,
,abdumannon,,5,10,8,8,3,0,0,0,0,0,,
,Hm47goat,,5,9,8,8,3,0,0,0,0,0,,
,flarbman,,4,8,8,8,3,0,0,0,0,0,,
,PaxMagnus,,11,8,8,8,3,0,0,0,0,0,,
,Afronizer,,12,8,8,8,3,0,0,0,0,0,,
,Yate,,7,8,8,8,3,0,0,0,0,0,,
,Babooshka,,5,10,8,8,3,0,0,0,0,0,,
,LucentMeadows,,1,8,8,8,3,0,0,0,0,0,,
,Genketsu,,8,8,8,8,3,0,0,0,0,0,,
,Jinimage,,5,16,8,8,3,0,0,0,0,0,,
,yoshi0911,,9,8,8,8,3,0,0,0,0,0,,
,espina,,5,20,8,8,3,0,0,0,0,0,,
,vrjar,,1,8,8,8,3,0,0,0,0,0,,
,Zhiga,,9,8,8,8,3,0,0,0,0,0,,
,amin,,11,22,8,8,3,0,0,0,0,0,,
,hitseven,,4,8,8,8,3,0,0,0,0,0,,
,HaruhiSuzumiya,,8,8,8,8,3,0,0,0,0,0,,
,Djonbol1,,8,7,7,7,2,0,0,0,0,0,,
,eskoll899,,4,7,7,7,2,0,0,0,0,0,,
,gruberx!,,8,7,7,7,2,0,0,0,0,0,,
,CorpGravius,,10,7,7,7,2,0,0,0,0,0,,
,apix3222,,7,7,7,7,2,0,0,0,0,0,,
,J0kerzWyld,,1,7,7,7,2,0,0,0,0,0,,
,Noshlarr,,9,7,7,7,2,0,0,0,0,0,,
,AngryLookingGuy,,5,7,7,7,2,0,0,0,0,0,,
,Zzodiacz,,7,8,7,7,2,0,0,0,0,0,,
,DaoChemist,,8,7,7,7,2,0,0,0,0,0,,
,The Nature Boy,,7,7,7,7,2,0,0,0,0,0,,
,Ryujin0903,,2,7,7,7,2,0,0,0,0,0,,
,sinhead83,,5,10,7,7,2,0,0,0,0,0,,
,juliusnakamoto,,6,7,7,7,2,0,0,0,0,0,,
,freedom2020,,8,7,7,7,2,0,0,0,0,0,,
,stfchamp,,10,7,7,7,2,0,0,0,0,0,,
,GazzaMine,,4,7,7,7,2,0,0,0,0,0,,
,M.o.D,,5,25,7,7,2,0,0,0,0,0,,
,rawad878,,1,12,7,7,2,0,0,0,0,0,,
,.XXOTCXX.,,7,17,7,7,2,0,0,0,0,0,,
,spapinistarkware,,1,7,7,7,2,0,0,0,0,0,,
,macek166,,3,7,7,7,2,0,0,0,0,0,,
,blockchainedpando,,7,26,7,7,2,0,0,0,0,0,,
,ezimedia,,7,7,7,7,2,0,0,0,0,0,,
,plaakkon,,10,17,7,7,2,0,0,0,0,0,,
,ZhiBo,,6,9,7,7,2,0,0,0,0,0,,
,Konohime,,8,6,6,6,2,0,0,0,0,0,,
,Yavorlee,,4,6,6,6,2,0,0,0,0,0,,
,axordahaxor,,9,6,6,6,2,0,0,0,0,0,,
,Diman007,,8,6,6,6,2,0,0,0,0,0,,
,pauk6666,,7,10,6,6,2,0,0,0,0,0,,
,Blackbird,,5,31,6,6,2,0,0,1,0,0,,
,Gone_2_Deep,,1,18,6,6,2,0,0,0,0,0,,
,JaffyHigg,,3,6,6,6,2,0,0,0,0,0,,
,SLIB,,9,6,6,6,2,0,0,0,0,0,,
,Bobmynobster,,5,6,6,6,2,0,0,0,0,0,,
,Trollmann,,10,6,6,6,2,0,0,0,0,0,,
,ra,,9,6,6,6,2,0,0,0,0,0,,
,DEMON-Dude,,8,7,6,6,2,0,0,0,0,0,,
,MAC,,7,6,6,6,2,0,0,0,0,0,,
,ananasbanana,,1,6,6,6,2,0,0,0,0,0,,
,karlito636,,10,6,6,6,2,0,0,0,0,0,,
,Œú·¥á ü·¥è…¥,,8,6,6,6,2,0,0,0,0,0,,
,ILLGLORY,,9,42,6,6,2,0,0,1,0,0,,
,grega1999,,8,6,6,6,2,0,0,0,0,0,,
,taurus1983,,7,16,6,6,2,0,0,0,0,0,,
,Samishii,,2,6,6,6,2,0,0,0,0,0,,
,Hippietrip,,5,10,6,6,2,0,0,0,0,0,,
,MadMan,,3,6,6,6,2,0,0,0,0,0,,
,trance,,3,6,6,6,2,0,0,0,0,0,,
,tactics1,,9,6,6,6,2,0,0,0,0,0,,
,trollshock,,8,6,6,6,2,0,0,0,0,0,,
,sevenjay,,5,6,6,6,2,0,0,0,0,0,,
,PeterD,,9,5,5,5,2,0,0,0,0,0,,
,Ms. Tanith,,5,5,5,5,2,0,0,0,0,0,,
,StardewLover,,7,5,5,5,2,0,0,0,0,0,,
,Mrchains,,2,5,5,5,2,0,0,0,0,0,,
,josephku,,7,5,5,5,2,0,0,0,0,0,,
,maelstrom4880,,4,5,5,5,2,0,0,0,0,0,,
,chilltown,,7,5,5,5,2,0,0,0,0,0,,
,Demon Party,,4,5,5,5,2,0,0,0,0,0,,
,$,,10,45,5,5,2,0,0,1,0,0,,
,xvaimC70,,5,5,5,5,2,0,0,0,0,0,,
,BORAICHO,,2,20,5,5,2,0,0,0,0,0,,
,Tribone,,7,5,5,5,2,0,0,0,0,0,,
,Camypau-,,8,5,5,5,2,0,0,0,0,0,,
,DemonJnr,,8,5,5,5,2,0,0,0,0,0,,
,serthan,,8,5,5,5,2,0,0,0,0,0,,
,radi,,12,5,5,5,2,0,0,0,0,0,,
,el_oaxaco,,4,5,5,5,2,0,0,0,0,0,,
,Nininiao,,12,5,5,5,2,0,0,0,0,0,,
,trent_reznor,,9,5,5,5,2,0,0,0,0,0,,
,iflion,,7,5,5,5,2,0,0,0,0,0,,
,Rievserg,,8,5,5,5,2,0,0,0,0,0,,
,ohDeerGod,,1,5,5,5,2,0,0,0,0,0,,
,Sialla24,,1,5,5,5,2,0,0,0,0,0,,
,scottscabbers95,,1,5,5,5,2,0,0,0,0,0,,
,Slippy P,,9,5,5,5,2,0,0,0,0,0,,
,Q,,7,5,5,5,2,0,0,0,0,0,,
,Cruel Vegan,,1,5,5,5,2,0,0,0,0,0,,
,Noses796,,5,29,4,4,1,0,0,0,0,0,,
,JMoney,,11,4,4,4,1,0,0,0,0,0,,
,JadedLight,,5,4,4,4,1,0,0,0,0,0,,
,EL CAPITOCH,,1,4,4,4,1,0,0,0,0,0,,
,Nyktimen√©,,7,4,4,4,1,0,0,0,0,0,,
,isaacfufu,,9,4,4,4,1,0,0,0,0,0,,
,WOLFPT,,5,4,4,4,1,0,0,0,0,0,,
,ConflictedNewton,,11,4,4,4,1,0,0,0,0,0,,
,masanari,,7,4,4,4,1,0,0,0,0,0,,
,@$$,,10,4,4,4,1,0,0,0,0,0,,
,intacrypt,,6,4,4,4,1,0,0,0,0,0,,
,MaestroGR,,8,4,4,4,1,0,0,0,0,0,,
,Progressive,,1,4,4,4,1,0,0,0,0,0,,
,psychofking,,1,4,4,4,1,0,0,0,0,0,,
,Jdeluxe,,7,4,4,4,1,0,0,0,0,0,,
,goldemon,,9,4,4,4,1,0,0,0,0,0,,
,Boseafus,,1,4,4,4,1,0,0,0,0,0,,
,dalahad,,10,4,4,4,1,0,0,0,0,0,,
,iluvsheep,,8,4,4,4,1,0,0,0,0,0,,
,quantumgamble,,10,4,4,4,1,0,0,0,0,0,,
,Kolledaboss,,8,4,4,4,1,0,0,0,0,0,,
,PuzzleMazl,,9,4,4,4,1,0,0,0,0,0,,
,forest gate,,2,4,4,4,1,0,0,0,0,0,,
,WildCard0341,,8,4,4,4,1,0,0,0,0,0,,
,SpicoliAndreti,,6,4,4,4,1,0,0,0,0,0,,
,turgor777,,7,4,4,4,1,0,0,0,0,0,,
,fuck_all,,7,4,4,4,1,0,0,0,0,0,,
,shadowstrike42,,7,4,4,4,1,0,0,0,0,0,,
,strange,,5,4,4,4,1,0,0,0,0,0,,
,blockchaingames.fun,,9,4,4,4,1,0,0,0,0,0,,
,Zerxus,,4,4,4,4,1,0,0,0,0,0,,
,monkey,,8,4,4,4,1,0,0,0,0,0,,
,Bielobog,,8,4,4,4,1,0,0,0,0,0,,
,TerribleJIexa,,8,4,4,4,1,0,0,0,0,0,,
,DPRoberts99,,7,4,4,4,1,0,0,0,0,0,,
,PrinceH,,7,4,4,4,1,0,0,0,0,0,,
,bang39,,9,4,4,4,1,0,0,0,0,0,,
,aeaon,,5,4,4,4,1,0,0,0,0,0,,
,yo.achim,,7,4,4,4,1,0,0,0,0,0,,
,FlexyFlexy,,8,3,3,3,1,0,0,0,0,0,,
,BlocksUnchained,,11,3,3,3,1,0,0,0,0,0,,
,Ragnor8476,,9,3,3,3,1,0,0,0,0,0,,
,cambocleve,,9,3,3,3,1,0,0,0,0,0,,
,Sorpiondude,,4,3,3,3,1,0,0,0,0,0,,
,restb777,,8,3,3,3,1,0,0,0,0,0,,
,daviroz,,1,3,3,3,1,0,0,0,0,0,,
,Rakalel,,7,3,3,3,1,0,0,0,0,0,,
,Denker,,9,3,3,3,1,0,0,0,0,0,,
,TriggerHappy,,1,3,3,3,1,0,0,0,0,0,,
,bartek35,,2,3,3,3,1,0,0,0,0,0,,
,Gabriel,,9,3,3,3,1,0,0,0,0,0,,
,[Twitch4Fun] Kaeserotor,,12,3,3,3,1,0,0,0,0,0,,
,Olymp,,7,3,3,3,1,0,0,0,0,0,,
,Acecompac,,6,3,3,3,1,0,0,0,0,0,,
,noa2015,,7,3,3,3,1,0,0,0,0,0,,
,CryptoHype,,4,3,3,3,1,0,0,0,0,0,,
,trakzenator,,7,3,3,3,1,0,0,0,0,0,,
,wingwolf,,1,3,3,3,1,0,0,0,0,0,,
,DeMoN666,,10,3,3,3,1,0,0,0,0,0,,
,Overlordtrial,,5,3,3,3,1,0,0,0,0,0,,
,Fettsauchris,,1,3,3,3,1,0,0,0,0,0,,
,Yurij,,8,3,3,3,1,0,0,0,0,0,,
,Justinkase,,7,3,3,3,1,0,0,0,0,0,,
,ToggleBlade,,1,3,3,3,1,0,0,0,0,0,,
,blue&white,,5,3,3,3,1,0,0,0,0,0,,
,chickpeaces,,1,3,3,3,1,0,0,0,0,0,,
,-=√êDr√Æve~√üyE‚Ç¨=-,,5,3,3,3,1,0,0,0,0,0,,
,Harmike6,,1,3,3,3,1,0,0,0,0,0,,
,‰ªä,,12,3,3,3,1,0,0,0,0,0,,
,mglmori,,9,3,3,3,1,0,0,0,0,0,,
,screenlag,,1,3,3,3,1,0,0,0,0,0,,
,bwindi,,6,3,3,3,1,0,0,0,0,0,,
,davirozz,,8,3,3,3,1,0,0,0,0,0,,
,Cryptotastic,,12,3,3,3,1,0,0,0,0,0,,
,Edgecaser,,9,2,2,2,0,0,0,0,0,0,,
,ill_coin,,6,2,2,2,0,0,0,0,0,0,,
,PropanePanda,,3,2,2,2,0,0,0,0,0,0,,
,Diablokgb,,9,2,2,2,0,0,0,0,0,0,,
,TrungGau,,3,2,2,2,0,0,0,0,0,0,,
,ronink77,,4,2,2,2,0,0,0,0,0,0,,
,Avatar1188,,4,2,2,2,0,0,0,0,0,0,,
,crystalhuman,,6,2,2,2,0,0,0,0,0,0,,
,„ÅäÈáëÁå´,,10,2,2,2,0,0,0,0,0,0,,
,stachu,,8,2,2,2,0,0,0,0,0,0,,
,AmericanIcarus,,8,2,2,2,0,0,0,0,0,0,,
,ghostofmerln,,9,2,2,2,0,0,0,0,0,0,,
,BuidloBagins,,10,2,2,2,0,0,0,0,0,0,,
,gu.cards,,8,2,2,2,0,0,0,0,0,0,,
,EdOnCouch,,11,2,2,2,0,0,0,0,0,0,,
,[Mythic] Freedan Fan,,12,2,2,2,0,0,0,0,0,0,,
,Reaperkiller,,4,2,2,2,0,0,0,0,0,0,,
,NoblusMass,,5,2,2,2,0,0,0,0,0,0,,
,Totemsh,,9,2,2,2,0,0,0,0,0,0,,
,god of ganja,,7,2,2,2,0,0,0,0,0,0,,
,gothmaug,,10,2,2,2,0,0,0,0,0,0,,
,Ainokami,,8,2,2,2,0,0,0,0,0,0,,
,BlueBeard,,3,2,2,2,0,0,0,0,0,0,,
,willtheitking,,5,2,2,2,0,0,0,0,0,0,,
,ShadedGlade,,3,2,2,2,0,0,0,0,0,0,,
,Blackhalo,,4,2,2,2,0,0,0,0,0,0,,
,Kojiroad,,5,2,2,2,0,0,0,0,0,0,,
,Akramoff,,6,2,2,2,0,0,0,0,0,0,,
,Jahura_Banu,,8,2,2,2,0,0,0,0,0,0,,
,Yostari,,8,2,2,2,0,0,0,0,0,0,,
,Mojo,,6,2,2,2,0,0,0,0,0,0,,
,Cerberus,,8,2,2,2,0,0,0,0,0,0,,
,HeresYourTollTroll,,10,2,2,2,0,0,0,0,0,0,,
,NessUnchained,,1,2,2,2,0,0,0,0,0,0,,
,GOD OF CATS üòª,,8,2,2,2,0,0,0,0,0,0,,
,vexbasquae,,1,2,2,2,0,0,0,0,0,0,,
,Mephisto,,1,2,2,2,0,0,0,0,0,0,,
,shenky95,,1,2,2,2,0,0,0,0,0,0,,
,Ryl0Xx,,1,2,2,2,0,0,0,0,0,0,,
,Minimunzter,,1,2,2,2,0,0,0,0,0,0,,
,kolia3616,,7,2,2,2,0,0,0,0,0,0,,
,romansito,,4,2,2,2,0,0,0,0,0,0,,
,seedlingqueen,,1,2,2,2,0,0,0,0,0,0,,
,Varick,,9,2,2,2,0,0,0,0,0,0,,
,Noice,,8,2,2,2,0,0,0,0,0,0,,
,Goder,,7,2,2,2,0,0,0,0,0,0,,
,Drunkigan,,4,2,2,2,0,0,0,0,0,0,,
,Jin Jazama,,3,2,2,2,0,0,0,0,0,0,,
,Ninjaturtle,,8,2,2,2,0,0,0,0,0,0,,
,~o0GiN0o~,,8,2,2,2,0,0,0,0,0,0,,
,bouncetree,,7,2,2,2,0,0,0,0,0,0,,
,Lazy Panda,,1,2,2,2,0,0,0,0,0,0,,
,Deadmarsh,,7,2,2,2,0,0,0,0,0,0,,
,BTGMoose,,1,2,2,2,0,0,0,0,0,0,,
,skabber,,10,1,1,1,0,0,0,0,0,0,,
,Helga999,,8,1,1,1,0,0,0,0,0,0,,
,Sephiroth,,1,1,1,1,0,0,0,0,0,0,,
,Lollerskates,,8,1,1,1,0,0,0,0,0,0,,
,Zathura45,,7,1,1,1,0,0,0,0,0,0,,
,Ezoss_in_space,,1,1,1,1,0,0,0,0,0,0,,
,Blank Never Loses,,11,1,1,1,0,0,0,0,0,0,,
,Edmondous,,4,1,1,1,0,0,0,0,0,0,,
,ReportMe,,7,1,1,1,0,0,0,0,0,0,,
,Imperator Arcadus,,3,1,1,1,0,0,0,0,0,0,,
,Watemper,,8,1,1,1,0,0,0,0,0,0,,
,Kronos,,11,1,1,1,0,0,0,0,0,0,,
,prism610,,1,1,1,1,0,0,0,0,0,0,,
,furryballs,,8,1,1,1,0,0,0,0,0,0,,
,Lokiness,,1,1,1,1,0,0,0,0,0,0,,
,gusarcek,,1,1,1,1,0,0,0,0,0,0,,
,Achilles64,,3,1,1,1,0,0,0,0,0,0,,
,Ruf,,7,1,1,1,0,0,0,0,0,0,,
,o2Beast,,1,1,1,1,0,0,0,0,0,0,,
,FreeWilly,,1,1,1,1,0,0,0,0,0,0,,
,Koyaanisqatsi,,7,1,1,1,0,0,0,0,0,0,,
,Lighon,,6,1,1,1,0,0,0,0,0,0,,
,ProtegeAA,,6,1,1,1,0,0,0,0,0,0,,
,AlanSteve,,3,1,1,1,0,0,0,0,0,0,,
,menelvagor,,12,1,1,1,0,0,0,0,0,0,,
,Alpha_Adz,,7,1,1,1,0,0,0,0,0,0,,
,Akiro,,7,1,1,1,0,0,0,0,0,0,,
,bobcryptolover,,6,1,1,1,0,0,0,0,0,0,,
,shiskebab10,,5,1,1,1,0,0,0,0,0,0,,
,Hastal Havista,,6,1,1,1,0,0,0,0,0,0,,
,Vaffelei,,1,1,1,1,0,0,0,0,0,0,,
,LittleMeTime,,8,1,1,1,0,0,0,0,0,0,,
,naiden39,,5,1,1,1,0,0,0,0,0,0,,
,Wazza,,2,1,1,1,0,0,0,0,0,0,,
,blondin,,6,1,1,1,0,0,0,0,0,0,,
,Venomarix,,1,1,1,1,0,0,0,0,0,0,,
,Allaunthefox,,3,1,1,1,0,0,0,0,0,0,,
,Cdg,,4,1,1,1,0,0,0,0,0,0,,
,blackford2,,1,1,1,1,0,0,0,0,0,0,,
,Hedeslag,,4,1,1,1,0,0,0,0,0,0,,
,crypto_bovine,,6,1,1,1,0,0,0,0,0,0,,
,QuinnBear,,10,1,1,1,0,0,0,0,0,0,,
,ThatCrooks,,4,1,1,1,0,0,0,0,0,0,,
,Barbajay,,1,1,1,1,0,0,0,0,0,0,,
,spacepirate,,9,1,1,1,0,0,0,0,0,0,,
,oniru,,7,1,1,1,0,0,0,0,0,0,,
,KrypTonik,,7,1,1,1,0,0,0,0,0,0,,
,DiarrheaTsunami,,2,1,1,1,0,0,0,0,0,0,,
,mike0182,,10,1,1,1,0,0,0,0,0,0,,
,format c:\,,6,1,1,1,0,0,0,0,0,0,,
,LandynsCryptoz,,1,1,1,1,0,0,0,0,0,0,,
,Xiato,,7,1,1,1,0,0,0,0,0,0,,
,Cesarius,,1,1,1,1,0,0,0,0,0,0,,
,cobraKing,,1,1,1,1,0,0,0,0,0,0,,
,ReidulousKane,,5,1,1,1,0,0,0,0,0,0,,
,FraudulentFree,,2,1,1,1,0,0,0,0,0,0,,
,The Cleric,,5,1,1,1,0,0,0,0,0,0,,
,homline,,7,1,1,1,0,0,0,0,0,0,,
,PeriodBloodMouthWash,,7,1,1,1,0,0,0,0,0,0,,
,delphinny,,1,1,1,1,0,0,0,0,0,0,,
,Ponysibirsk,,1,1,1,1,0,0,0,0,0,0,,
,Zulhakar,,9,1,1,1,0,0,0,0,0,0,,
,onlys,,6,1,1,1,0,0,0,0,0,0,,
,Dinobravo,,1,1,1,1,0,0,0,0,0,0,,
,SnoozeDragon,,6,1,1,1,0,0,0,0,0,0,,
,Longsan1,,1,1,1,1,0,0,0,0,0,0,,
,manckys1126,,8,1,1,1,0,0,0,0,0,0,,
,BalacX,,1,1,1,1,0,0,0,0,0,0,,
,BohemianBrewer,,1,1,1,1,0,0,0,0,0,0,,
,N0fx,,7,1,1,1,0,0,0,0,0,0,,
,WARRgod1,,1,1,1,1,0,0,0,0,0,0,,
,Soothio1,,4,1,1,1,0,0,0,0,0,0,,
,marukaziri,,8,1,1,1,0,0,0,0,0,0,,
,BosluisTepel,,1,1,1,1,0,0,0,0,0,0,,
,Dancing_shep,,8,1,1,1,0,0,0,0,0,0,,
,shock,,10,1,1,1,0,0,0,0,0,0,,
,HappyMan811,,4,1,1,1,0,0,0,0,0,0,,
,RCP10000,,1,1,1,1,0,0,0,0,0,0,,
,fd204,,10,1,1,1,0,0,0,0,0,0,,
,Savant.Specter,,12,1,1,1,0,0,0,0,0,0,,
,GL1TCH,,8,1,1,1,0,0,0,0,0,0,,
,JimmyBeaver,,8,1,1,1,0,0,0,0,0,0,,
,dr-nuker,,4,1,1,1,0,0,0,0,0,0,,
,Staff Phyre,,4,1,1,1,0,0,0,0,0,0,,
,Bakura10,,4,1,1,1,0,0,0,0,0,0,,
,SneezyDwarf,,12,1,1,1,0,0,0,0,0,0,,
,LuckyGuy,,6,1,1,1,0,0,0,0,0,0,,
,Drjajuan,,1,1,1,1,0,0,0,0,0,0,,
,remiranda28,,3,1,1,1,0,0,0,0,0,0,,
,SteelRat,,11,1,1,1,0,0,0,0,0,0,,
