,Username,Place,Peak Rating,Wins,Wins in first 25,Counted Wins,Core Rare,Core Epic,Core Legendary,Trial Rare,Trial Epic,Trial Legendary,,
Elite Tier,Ἄρης,1,1507.399072,21,,21,0,0,2,0,0,3,,"""Counted wins"" are either the total number of wins a player earned, or their maximum allowed for prizes based on the rank they had at the end of their 25th game during the event."
Leaderboard,Krumpy Lumpkins,2,1507.016032,35,,21,0,0,2,0,1,2,,
,幻,3,1478.895136,30,,21,0,0,2,0,0,2,,
,The38th,4,1533.207136,71,,20,0,1,1,0,0,2,,
,Charles Utkins,5,1505.671296,37,,20,0,0,1,0,0,2,,
,[tst] Freedan,6,1504.280448,52,,20,0,0,1,0,1,1,,
,[Mythic] Unchained,7,1502.999264,46,,20,0,0,1,0,0,1,,
,自然,8,1500.973632,37,,20,0,0,0,0,1,1,,
,[Mythic] Dragonstorm,9,1484.323648,37,,20,0,1,0,0,0,1,,
,[Mythic] Dookis,10,1481.579424,20,,20,0,0,0,0,0,1,,
,,,,,,,,,,,,,,
,Username,,Rank,Wins,Wins in first 25,Counted Wins,Core Rare,Core Epic,Core Legendary,Trial Rare,Trial Epic,Trial Legendary,,
,幻,,12,30,21,21,0,0,2,1,2,1,,
,Krumpy Lumpkins,,12,35,21,21,0,0,2,1,2,1,,
,Ἄρης,,12,21,21,21,0,0,2,0,2,1,,
,[Mythic] revan,,11,31,20,20,0,1,1,2,1,1,,
Complete,Charles Utkins,,12,37,20,20,0,1,1,2,1,1,,
Weekend,自然,,12,37,20,20,0,1,1,2,1,1,,
Ranked,Akilsainon,,11,30,20,20,0,1,1,2,1,1,,
(Includes,[tst] Freedan,,12,52,20,20,0,1,1,2,1,1,,
Bonus Prizes,Archangel1318,,12,24,20,20,0,1,1,1,1,1,,
for 30 Wins),The38th,,12,71,20,20,0,1,1,2,1,1,,
,[Mythic] Unchained,,12,46,20,20,0,1,1,2,1,1,,
,[Mythic] Dragonstorm,,12,37,20,20,0,1,1,2,1,1,,
,[Mythic] Dookis,,12,20,20,20,0,1,1,1,1,1,,
,Godamnitleeroy,,12,36,19,19,0,2,1,1,2,0,,
,jama,,12,33,19,19,0,2,1,1,2,0,,
,[Pulse] Aldoc,,12,35,19,19,0,2,1,1,2,0,,
,Грумвол,,11,23,19,19,0,2,1,0,2,0,,
,Lezuziusz,,12,19,19,19,0,2,1,0,2,0,,
,Lilac,,12,26,19,19,0,2,1,0,2,0,,
,Woden,,11,24,19,19,0,2,1,0,2,0,,
,TREY,,12,26,19,19,0,2,1,0,2,0,,
,kigawakunto27,,12,23,19,19,0,2,1,0,2,0,,
,F1rst,,9,24,19,18,0,3,0,0,2,0,,
,noteboom,,10,19,18,18,0,3,0,0,2,0,,
,ZAFARI,,9,30,18,18,0,3,0,1,2,0,,
,StrongHands,,9,18,18,18,0,3,0,0,2,0,,
,[VET] Apollo,,12,30,18,18,0,3,0,1,2,0,,
,Veloth,,12,24,18,18,0,3,0,0,2,0,,
,Cerne,,12,20,18,18,0,3,0,0,2,0,,
,deepbanan4,,10,21,18,18,0,3,0,0,2,0,,
,carebear,,12,30,18,18,0,3,0,1,2,0,,
,superslim-NCP,,9,35,18,18,0,3,0,1,2,0,,
,XSITE,,10,30,18,18,0,3,0,1,2,0,,
,[Mythic] saints,,12,30,18,18,0,3,0,1,2,0,,
,imslo,,9,20,18,18,0,3,0,0,2,0,,
,r3hab,,12,36,18,18,0,3,0,1,2,0,,
,TheNotoriouszz,,9,19,18,18,0,3,0,0,2,0,,
,monStar,,12,29,18,18,0,3,0,0,2,0,,
,naynaysoosoo,,9,24,18,18,0,3,0,0,2,0,,
,OverM,,8,34,20,17,1,2,0,1,2,0,,
,quokku,,8,24,20,17,1,2,0,0,2,0,,
,MyReligion,,8,28,18,17,1,2,0,0,2,0,,
,Wezz,,12,34,17,17,1,2,0,1,2,0,,
,Ares,,9,42,17,17,1,2,0,1,2,0,,
,flex13,,12,106,17,17,1,2,0,1,2,0,,
,superslim,,12,30,17,17,1,2,0,1,2,0,,
,V-Hirvi,,12,31,17,17,1,2,0,1,2,0,,
,[tst]themudman,,12,17,17,17,1,2,0,0,2,0,,
,JoltzNinja,,11,31,17,17,1,2,0,1,2,0,,
,Mirage88,,12,37,17,17,1,2,0,1,2,0,,
,pornhub,,10,19,17,17,1,2,0,0,2,0,,
,[Mythic] Ducky,,12,31,17,17,1,2,0,1,2,0,,
,[Pulse] v2,,11,35,17,17,1,2,0,1,2,0,,
,GreenGuy,,12,31,17,17,1,2,0,1,2,0,,
,hERoIC15397,,9,45,17,17,1,2,0,1,2,0,,
,Salernik,,10,17,17,17,1,2,0,0,2,0,,
,drchronic01,,9,17,17,17,1,2,0,0,2,0,,
,little1985,,11,21,17,17,1,2,0,0,2,0,,
,白乌鸦,,12,35,17,17,1,2,0,1,2,0,,
,GUDecks.com,,12,24,17,17,1,2,0,0,2,0,,
,dalahad,,10,30,17,17,1,2,0,1,2,0,,
,Aragon,,12,34,17,17,1,2,0,1,2,0,,
,Pwned_By_A_Girl,,7,22,18,16,0,3,0,1,1,0,,
,memory1tb,,7,18,18,16,0,3,0,1,1,0,,
,skabber,,7,20,17,16,0,3,0,1,1,0,,
,Mr_Zinger,,7,18,17,16,0,3,0,1,1,0,,
,mmGRE3Nww,,7,19,17,16,0,3,0,1,1,0,,
,[tst]cautionfun,,12,30,16,16,0,3,0,2,1,0,,
,arisho,,8,33,16,16,0,3,0,2,1,0,,
,Tru+hSe3ker,,11,20,16,16,0,3,0,1,1,0,,
,Returner,,8,16,16,16,0,3,0,1,1,0,,
,D_Vitiate,,11,46,16,16,0,3,0,2,1,0,,
,Gandharva,,12,16,16,16,0,3,0,1,1,0,,
,[tst]bonkthatbutt,,12,22,16,16,0,3,0,1,1,0,,
,[Mythic] GGian,,12,41,16,16,0,3,0,2,1,0,,
,DRASTICxOUTLAW,,7,16,16,16,0,3,0,1,1,0,,
,✜,,10,33,16,16,0,3,0,2,1,0,,
,Sith,,12,17,16,16,0,3,0,1,1,0,,
,ozimodan,,12,19,16,16,0,3,0,1,1,0,,
,Scuffle,,12,16,16,16,0,3,0,1,1,0,,
,copperpitch,,12,42,16,16,0,3,0,2,1,0,,
,PlinytheEther,,11,30,16,16,0,3,0,2,1,0,,
,Zaklínač,,5,16,16,16,1,2,0,2,0,0,,
,MOCHET2020,,6,17,17,15,1,2,0,2,0,0,,
,Kselsi,,5,16,16,15,1,2,0,2,0,0,,
,TheUnknown,,7,17,15,15,1,2,0,2,0,0,,
,Unique.Esprit,,9,16,15,15,1,2,0,2,0,0,,
,Longy,,12,70,15,15,1,2,0,3,0,0,,
,DeHenne,,8,18,15,15,1,2,0,2,0,0,,
,PooNaniHunter,,9,21,15,15,1,2,0,2,0,0,,
,SpaceCoastKook,,11,16,15,15,1,2,0,2,0,0,,
,GodMode,,8,20,15,15,1,2,0,2,0,0,,
,HeresYourTollTroll,,8,21,15,15,1,2,0,2,0,0,,
,darkbluechain,,9,27,15,15,1,2,0,2,0,0,,
,Manymany,,6,36,15,15,1,2,0,3,0,0,,
,justinj0305,,7,15,15,15,1,2,0,2,0,0,,
,maovader888,,6,23,15,15,1,2,0,2,0,0,,
,furryballs,,6,15,15,15,1,2,0,2,0,0,,
,⌀,,6,15,15,15,1,2,0,2,0,0,,
,mzob,,6,25,15,15,1,2,0,2,0,0,,
,Nagibator777,,12,32,15,15,1,2,0,3,0,0,,
,DiegoFerreL,,12,57,15,15,1,2,0,3,0,0,,
,Naaaaaaaaaas,,9,18,15,15,1,2,0,2,0,0,,
,Yaratsu,,7,16,15,15,1,2,0,2,0,0,,
,marukaziri,,7,15,15,15,1,2,0,2,0,0,,
,Marigoth,,8,35,15,15,1,2,0,3,0,0,,
,♜ ♝ ♞ ♟,,8,16,15,15,1,2,0,2,0,0,,
,Beacze,,8,31,15,15,1,2,0,3,0,0,,
,Slye,,9,15,15,15,1,2,0,2,0,0,,
,sensebe,,10,47,15,15,1,2,0,3,0,0,,
,ﺴﺶﻈ,,9,25,15,15,1,2,0,2,0,0,,
,mike0182,,10,29,15,15,1,2,0,2,0,0,,
,Chamil,,9,15,15,15,1,2,0,2,0,0,,
,ferzspb,,9,26,15,15,1,2,0,2,0,0,,
,spacepirate,,8,19,15,15,1,2,0,2,0,0,,
,Djonbol1,,8,35,15,15,1,2,0,3,0,0,,
,mayablock,,7,16,15,15,1,2,0,2,0,0,,
,EricShawn,,10,15,15,15,1,2,0,2,0,0,,
,quantumgamble,,10,57,15,15,1,2,0,3,0,0,,
,Wades.ETH,,12,38,15,15,1,2,0,3,0,0,,
,Vany,,12,32,15,15,1,2,0,3,0,0,,
,LordDarktempler,,10,31,15,15,1,2,0,3,0,0,,
,stevecronin,,7,36,15,15,1,2,0,3,0,0,,
,LetMeLive,,12,31,15,15,1,2,0,3,0,0,,
,maulotov,,12,15,15,15,1,2,0,2,0,0,,
,Ayo,,12,15,15,15,1,2,0,2,0,0,,
,三日月,,12,15,15,15,1,2,0,2,0,0,,
,gou,,12,15,15,15,1,2,0,2,0,0,,
,Demons,,12,57,15,15,1,2,0,3,0,0,,
,trent_reznor,,7,30,14,14,1,2,0,3,0,0,,
,Dallas_barr,,11,16,14,14,1,2,0,2,0,0,,
,PleaseDontRopeMe,,11,36,14,14,1,2,0,3,0,0,,
,mydogzeus,,11,14,14,14,1,2,0,2,0,0,,
,Fantomasek,,12,24,14,14,1,2,0,2,0,0,,
,Resonator,,11,14,14,14,1,2,0,2,0,0,,
,densdensdens,,7,14,14,14,1,2,0,2,0,0,,
,gerundio,,8,16,14,14,1,2,0,2,0,0,,
,a29654776,,8,23,14,14,1,2,0,2,0,0,,
,Koyaanisqatsi,,6,33,14,14,1,2,0,3,0,0,,
,ěĝĝƑơơƴơůňĝ,,9,36,14,14,1,2,0,3,0,0,,
,Lord of Crypto,,8,14,14,14,1,2,0,2,0,0,,
,Omen #MetaHash,,11,14,14,14,1,2,0,2,0,0,,
,Lysander,,12,21,14,14,1,2,0,2,0,0,,
,Q,,6,14,14,14,1,2,0,2,0,0,,
,trilldebeest,,10,20,14,14,1,2,0,2,0,0,,
,superman313,,10,39,14,14,1,2,0,3,0,0,,
,ZENIMOON,,8,29,14,14,1,2,0,2,0,0,,
,Shibanqk,,12,44,14,14,1,2,0,3,0,0,,
,Waikikamukau,,12,17,14,14,1,2,0,2,0,0,,
,Makakka,,8,14,14,14,1,2,0,2,0,0,,
,reddybear,,12,14,14,14,1,2,0,2,0,0,,
,Brassica7,,10,20,14,14,1,2,0,2,0,0,,
,魔junior,,12,17,14,14,1,2,0,2,0,0,,
,Aziekial,,8,27,14,14,1,2,0,2,0,0,,
,sadisteck,,10,14,14,14,1,2,0,2,0,0,,
,Lucifer,,12,27,14,14,1,2,0,2,0,0,,
,__Razen__,,8,15,14,14,1,2,0,2,0,0,,
,apix3222,,7,30,14,14,1,2,0,3,0,0,,
,AnusMundi,,9,14,14,14,1,2,0,2,0,0,,
,Aadi1912,,7,18,14,14,1,2,0,2,0,0,,
,Slackov,,10,15,14,14,1,2,0,2,0,0,,
,TooEasy,,12,17,14,14,1,2,0,2,0,0,,
,Lifeboy,,11,22,14,14,1,2,0,2,0,0,,
,のんちゃん,,12,57,14,14,1,2,0,3,0,0,,
,TheHassy,,11,18,14,14,1,2,0,2,0,0,,
,ulcus,,7,15,14,14,1,2,0,2,0,0,,
,Bumboklaat,,9,14,14,14,1,2,0,2,0,0,,
,Ninjaturtle,,8,16,14,14,1,2,0,2,0,0,,
,Marginal,,9,16,14,14,1,2,0,2,0,0,,
,cryptoznewb,,12,17,14,14,1,2,0,2,0,0,,
,Soulsz16,,1,20,19,13,2,1,0,1,0,0,,
,cyrusthegreat,,2,18,18,13,2,1,0,1,0,0,,
,deadboy666,,1,24,18,13,2,1,0,1,0,0,,
,EricUnchained,,1,32,17,13,2,1,0,2,0,0,,
,Darkan00,,1,24,17,13,2,1,0,1,0,0,,
,shnoor,,1,17,17,13,2,1,0,1,0,0,,
,MisterTroll,,3,70,17,13,2,1,0,2,0,0,,
,zygeL,,1,22,15,13,2,1,0,1,0,0,,
,Lloyd88!,,1,20,15,13,2,1,0,1,0,0,,
,MariksAzova,,1,26,15,13,2,1,0,1,0,0,,
,wanderlust933,,2,18,15,13,2,1,0,1,0,0,,
,PrinceMing88,,1,17,14,13,2,1,0,1,0,0,,
,Dasrauscht,,4,17,14,13,2,1,0,1,0,0,,
,Zweinhander,,1,14,14,13,2,1,0,1,0,0,,
,USP12345,,3,18,14,13,2,1,0,1,0,0,,
,TSUKUTSUKU,,1,16,14,13,2,1,0,1,0,0,,
,Sandalwood,,1,20,13,13,2,1,0,1,0,0,,
,Herodot20,,7,21,13,13,2,1,0,1,0,0,,
,dobindubas,,5,14,13,13,2,1,0,1,0,0,,
,zomsie,,9,32,13,13,2,1,0,2,0,0,,
,Dactar,,10,16,13,13,2,1,0,1,0,0,,
,popovanton89,,12,39,13,13,2,1,0,2,0,0,,
,Tallarico,,12,14,13,13,2,1,0,1,0,0,,
,RedDeath,,10,13,13,13,2,1,0,1,0,0,,
,Nanich,,6,25,13,13,2,1,0,1,0,0,,
,[Twitch4Fun] Kaeserotor,,11,14,13,13,2,1,0,1,0,0,,
,roytutu,,11,33,13,13,2,1,0,2,0,0,,
,CuCu99,,7,20,13,13,2,1,0,1,0,0,,
,Valhalla,,8,15,13,13,2,1,0,1,0,0,,
,finansisn,,8,23,13,13,2,1,0,1,0,0,,
,X Æ A-12,,9,41,13,13,2,1,0,2,0,0,,
,slivenec,,9,15,13,13,2,1,0,1,0,0,,
,VonMises,,12,13,13,13,2,1,0,1,0,0,,
,pavlik74rus,,6,14,13,13,2,1,0,1,0,0,,
,Oshay,,8,13,13,13,2,1,0,1,0,0,,
,SniffOnMe,,12,13,13,13,2,1,0,1,0,0,,
,Rvu_Vsem_Duplo,,7,15,13,13,2,1,0,1,0,0,,
,Ckastigador,,12,30,13,13,2,1,0,2,0,0,,
,GazzaMine,,1,13,13,13,2,1,0,1,0,0,,
,k2h,,11,32,13,13,2,1,0,2,0,0,,
,moogmother,,1,40,13,13,2,1,0,2,0,0,,
,twisterdw,,8,31,13,13,2,1,0,2,0,0,,
,Dimuron,,7,17,13,13,2,1,0,1,0,0,,
,stoeckro,,8,14,13,13,2,1,0,1,0,0,,
,amin,,8,56,13,13,2,1,0,2,0,0,,
,_fireartist,,8,14,13,13,2,1,0,1,0,0,,
,Chosen,,10,13,13,13,2,1,0,1,0,0,,
,馬鹿じゃない,,12,13,13,13,2,1,0,1,0,0,,
,MrEagle,,1,13,13,13,2,1,0,1,0,0,,
,JohnWick,,12,14,13,13,2,1,0,1,0,0,,
,Mari0netik,,5,25,13,13,2,1,0,1,0,0,,
,blacksad,,10,13,13,13,2,1,0,1,0,0,,
,CarnivalBigTop,,12,33,13,13,2,1,0,2,0,0,,
,Isildur1,,8,17,13,13,2,1,0,1,0,0,,
,ReportMe,,8,13,13,13,2,1,0,1,0,0,,
,chilltown,,8,16,13,13,2,1,0,1,0,0,,
,ThereCameAHero,,1,13,13,13,2,1,0,1,0,0,,
,cicada,,9,57,13,13,2,1,0,2,0,0,,
,with,,12,13,13,13,2,1,0,1,0,0,,
,Zmay,,11,13,13,13,2,1,0,1,0,0,,
,eddie murphy,,7,42,13,13,2,1,0,2,0,0,,
,isaacfufu,,8,19,13,13,2,1,0,1,0,0,,
,neverytime,,7,23,13,13,2,1,0,1,0,0,,
,Sleeping Goat,,9,15,13,13,2,1,0,1,0,0,,
,mattyesq,,11,18,13,13,2,1,0,1,0,0,,
,coinage,,8,17,13,13,2,1,0,1,0,0,,
,chaoren,,12,39,13,13,2,1,0,2,0,0,,
,sigfriedCrypto,,9,13,13,13,2,1,0,1,0,0,,
,tommyegangan,,5,14,13,13,2,1,0,1,0,0,,
,dedemon,,8,13,13,13,2,1,0,1,0,0,,
,oniru,,8,13,13,13,2,1,0,1,0,0,,
,FoxCries,,12,13,13,13,2,1,0,1,0,0,,
,gothmaug,,11,14,13,13,2,1,0,1,0,0,,
,Wasper,,12,29,13,13,2,1,0,1,0,0,,
,Danbog,,7,31,13,13,2,1,0,2,0,0,,
,BlackMagic,,9,15,12,12,2,1,0,1,0,0,,
,Oleg326756,,8,12,12,12,2,1,0,1,0,0,,
,Cryptolemon,,12,14,12,12,2,1,0,1,0,0,,
,rl958,,12,13,12,12,2,1,0,1,0,0,,
,Jdeluxe,,7,12,12,12,2,1,0,1,0,0,,
,licefer3,,1,12,12,12,2,1,0,1,0,0,,
,Demolisher,,11,18,12,12,2,1,0,1,0,0,,
,sparky,,11,31,12,12,2,1,0,2,0,0,,
,AMRLordCoins,,8,24,12,12,2,1,0,1,0,0,,
,Damaged Gadget,,12,13,12,12,2,1,0,1,0,0,,
,wic3x5,,7,12,12,12,2,1,0,1,0,0,,
,zlaxor,,12,33,12,12,2,1,0,2,0,0,,
,+BodPud+,,10,12,12,12,2,1,0,1,0,0,,
,mamont123,,8,12,12,12,2,1,0,1,0,0,,
,Lewnatic,,8,20,12,12,2,1,0,1,0,0,,
,Dave,,10,31,12,12,2,1,0,2,0,0,,
,Cedric008,,10,12,12,12,2,1,0,1,0,0,,
,imbiimbi,,7,36,12,12,2,1,0,2,0,0,,
,wadamaruz,,5,27,12,12,2,1,0,1,0,0,,
,SpicoliAndreti,,5,25,12,12,2,1,0,1,0,0,,
,Yostari,,11,18,12,12,2,1,0,1,0,0,,
,Noice,,8,30,12,12,2,1,0,2,0,0,,
,Ege,,1,12,12,12,2,1,0,1,0,0,,
,Lorcalus,,8,14,12,12,2,1,0,1,0,0,,
,tactics1,,9,12,12,12,2,1,0,1,0,0,,
,verbalshadow,,12,21,12,12,2,1,0,1,0,0,,
,PaxMagnus,,9,12,12,12,2,1,0,1,0,0,,
,Azazell,,6,13,12,12,2,1,0,1,0,0,,
,Intergalactic,,5,33,12,12,2,1,0,2,0,0,,
,Stumpjumper,,4,15,12,12,2,1,0,1,0,0,,
,someonesomeone,,10,17,12,12,2,1,0,1,0,0,,
,HaruhiSuzumiya,,8,15,12,12,2,1,0,1,0,0,,
,Goder,,5,26,12,12,2,1,0,1,0,0,,
,Zulhakar,,9,12,12,12,2,1,0,1,0,0,,
,Mice Elf,,7,18,12,12,2,1,0,1,0,0,,
,Dimas_XT,,8,12,12,12,2,1,0,1,0,0,,
,robotdeniro,,5,12,12,12,2,1,0,1,0,0,,
,Jese,,8,12,12,12,2,1,0,1,0,0,,
,Gabriel,,9,12,12,12,2,1,0,1,0,0,,
,のんちゃん,,11,16,12,12,2,1,0,1,0,0,,
,Ritzen13,,1,17,12,12,2,1,0,1,0,0,,
,Zephuros,,10,14,11,11,2,1,0,1,0,0,,
,MaestroGR,,7,20,11,11,2,1,0,1,0,0,,
,[IRIS]Yusakman,,9,11,11,11,2,1,0,1,0,0,,
,SpookieSpace,,1,11,11,11,2,1,0,1,0,0,,
,Bielobog,,3,12,11,11,2,1,0,1,0,0,,
,SHINZON,,7,12,11,11,2,1,0,1,0,0,,
,ghostrestaurantlab_inago,,8,11,11,11,2,1,0,1,0,0,,
,Ota Benga,,11,33,11,11,2,1,0,2,0,0,,
,Buggy,,10,11,11,11,2,1,0,1,0,0,,
,Naio,,9,16,11,11,2,1,0,1,0,0,,
,juliusnakamoto,,3,17,11,11,2,1,0,1,0,0,,
,SteelRat,,11,20,11,11,2,1,0,1,0,0,,
,zur_rama111,,2,30,11,11,2,1,0,2,0,0,,
,KJ,,7,11,11,11,2,1,0,1,0,0,,
,Denker,,12,11,11,11,2,1,0,1,0,0,,
,BitcoinDictator,,8,11,11,11,2,1,0,1,0,0,,
,Biggz0522,,7,12,11,11,2,1,0,1,0,0,,
,UnjustOne,,12,11,11,11,2,1,0,1,0,0,,
,AwesomeSparkly,,3,12,11,11,2,1,0,1,0,0,,
,Gytareum,,12,30,11,11,2,1,0,2,0,0,,
,EtherKnight,,8,11,11,11,2,1,0,1,0,0,,
,ProfessorBellBottom,,11,11,11,11,2,1,0,1,0,0,,
,cmosc89,,6,21,11,11,2,1,0,1,0,0,,
,Sir Tango,,12,11,11,11,2,1,0,1,0,0,,
,ScroopyNoopers,,4,11,11,11,2,1,0,1,0,0,,
,TerribleALX,,11,33,11,11,2,1,0,2,0,0,,
,Des Petrovich,,7,13,11,11,2,1,0,1,0,0,,
,Mel0n102,,9,11,11,11,2,1,0,1,0,0,,
,SOLARmkd,,12,11,11,11,2,1,0,1,0,0,,
,Elyon,,12,24,11,11,2,1,0,1,0,0,,
,Yompster,,9,35,11,11,2,1,0,2,0,0,,
,wiwismile,,2,13,11,11,2,1,0,1,0,0,,
,mmax,,8,11,11,11,2,1,0,1,0,0,,
,Strikeroff,,9,11,11,11,2,1,0,1,0,0,,
,channnnn,,10,11,11,11,2,1,0,1,0,0,,
,gantarisa,,8,11,11,11,2,1,0,1,0,0,,
,mnsx,,6,11,11,11,2,1,0,1,0,0,,
,Zhiga,,9,18,11,11,2,1,0,1,0,0,,
,Oblongfitzoblong,,11,11,11,11,2,1,0,1,0,0,,
,ProAndyKiller,,9,11,11,11,2,1,0,1,0,0,,
,NER00OON,,1,11,11,11,2,1,0,1,0,0,,
,Sapien Jon,,7,14,11,11,2,1,0,1,0,0,,
,Riddlept,,9,11,11,11,2,1,0,1,0,0,,
,ZEALOT,,9,13,11,11,2,1,0,1,0,0,,
,pokerbjj,,6,11,11,11,2,1,0,1,0,0,,
,xcoil,,7,23,11,11,2,1,0,1,0,0,,
,swimlane72,,9,31,11,11,2,1,0,2,0,0,,
,&,,8,17,11,11,2,1,0,1,0,0,,
,trakzenator,,1,11,11,11,2,1,0,1,0,0,,
,intacrypt,,5,12,11,11,2,1,0,1,0,0,,
,krashnovr,,11,11,11,11,2,1,0,1,0,0,,
,Pain,,7,11,11,11,2,1,0,1,0,0,,
,theboogyman,,9,11,11,11,2,1,0,1,0,0,,
,.XXOTCXX.,,1,22,11,11,2,1,0,1,0,0,,
,нн,,7,11,11,11,2,1,0,1,0,0,,
,Robot0005,,5,10,10,10,3,0,0,0,0,0,,
,Moonpig,,11,14,10,10,3,0,0,0,0,0,,
,radi,,12,10,10,10,3,0,0,0,0,0,,
,SpaceCat,,6,13,10,10,3,0,0,0,0,0,,
,vladyser5554,,7,10,10,10,3,0,0,0,0,0,,
,Xiato,,7,11,10,10,3,0,0,0,0,0,,
,Fastkill,,8,22,10,10,3,0,0,0,0,0,,
,serthan,,8,10,10,10,3,0,0,0,0,0,,
,iluvsheep,,8,11,10,10,3,0,0,0,0,0,,
,KceoLine,,9,10,10,10,3,0,0,0,0,0,,
,Cananopie,,9,10,10,10,3,0,0,0,0,0,,
,DPRoberts99,,9,14,10,10,3,0,0,0,0,0,,
,Manigoldo,,4,10,10,10,3,0,0,0,0,0,,
,Suicide_Hunter,,7,10,10,10,3,0,0,0,0,0,,
,Eltukko21,,7,10,10,10,3,0,0,0,0,0,,
,energy dorink,,8,10,10,10,3,0,0,0,0,0,,
,Stede,,11,12,10,10,3,0,0,0,0,0,,
,Blockfisher,,7,10,10,10,3,0,0,0,0,0,,
,RavenGuard,,12,38,10,10,3,0,0,1,0,0,,
,smirnawf,,11,10,10,10,3,0,0,0,0,0,,
,LordBrian,,6,10,10,10,3,0,0,0,0,0,,
,blockchaingames.fun,,9,10,10,10,3,0,0,0,0,0,,
,Starvin,,12,10,10,10,3,0,0,0,0,0,,
,DudeGuy420,,9,10,10,10,3,0,0,0,0,0,,
,z4tm99vr,,7,13,10,10,3,0,0,0,0,0,,
,Megawarez,,11,10,10,10,3,0,0,0,0,0,,
,FriendlySpy,,9,16,10,10,3,0,0,0,0,0,,
,Kaashuni,,9,10,10,10,3,0,0,0,0,0,,
,kentsutse,,5,10,10,10,3,0,0,0,0,0,,
,Bitcoin,,11,9,9,9,3,0,0,0,0,0,,
,RedRuggles5,,8,29,9,9,3,0,0,0,0,0,,
,crypto-lite91,,12,44,9,9,3,0,0,1,0,0,,
,Jahura_Banu,,2,41,9,9,3,0,0,1,0,0,,
,henningju,,8,9,9,9,3,0,0,0,0,0,,
,Zeleios,,9,9,9,9,3,0,0,0,0,0,,
,NAGIBATOR,,8,9,9,9,3,0,0,0,0,0,,
,Keigan2cool,,1,9,9,9,3,0,0,0,0,0,,
,bkositzke,,8,10,9,9,3,0,0,0,0,0,,
,Starboy,,12,9,9,9,3,0,0,0,0,0,,
,angrygnat,,9,18,9,9,3,0,0,0,0,0,,
,onlys,,4,10,9,9,3,0,0,0,0,0,,
,grille67,,7,24,9,9,3,0,0,0,0,0,,
,BiggestBiceptuis,,8,31,9,9,3,0,0,1,0,0,,
,Hastal Havista,,7,9,9,9,3,0,0,0,0,0,,
,BasVanSpanker,,9,35,9,9,3,0,0,1,0,0,,
,Hermes,,10,9,9,9,3,0,0,0,0,0,,
,Mhmed,,5,25,9,9,3,0,0,0,0,0,,
,karlito636,,6,9,9,9,3,0,0,0,0,0,,
,Deil713009,,5,15,9,9,3,0,0,0,0,0,,
,Sir Ike Moesha Broflovski,,10,39,9,9,3,0,0,1,0,0,,
,AlienWeapon,,11,16,9,9,3,0,0,0,0,0,,
,fice,,10,9,9,9,3,0,0,0,0,0,,
,Diman007,,7,11,9,9,3,0,0,0,0,0,,
,fluffyhag,,10,22,9,9,3,0,0,0,0,0,,
,The7tard,,4,13,9,9,3,0,0,0,0,0,,
,dad,,9,11,9,9,3,0,0,0,0,0,,
,shadowstrike42,,8,14,9,9,3,0,0,0,0,0,,
,☭,,8,9,9,9,3,0,0,0,0,0,,
,miojo_esperto,,12,9,9,9,3,0,0,0,0,0,,
,strange,,7,14,9,9,3,0,0,0,0,0,,
,AdventureStory,,8,12,9,9,3,0,0,0,0,0,,
,Tafut Aga,,5,14,9,9,3,0,0,0,0,0,,
,Veganic,,3,9,9,9,3,0,0,0,0,0,,
,Utar Vicar of Pebbles,,7,9,9,9,3,0,0,0,0,0,,
,Helga999,,8,9,9,9,3,0,0,0,0,0,,
,Bitsavage,,7,9,9,9,3,0,0,0,0,0,,
,Moneybags,,9,9,9,9,3,0,0,0,0,0,,
,DestrucTorT,,11,32,8,8,3,0,0,1,0,0,,
,maelstrom4880,,4,8,8,8,3,0,0,0,0,0,,
,£,,9,8,8,8,3,0,0,0,0,0,,
,gecheverria86,,8,8,8,8,3,0,0,0,0,0,,
,mezastel,,1,8,8,8,3,0,0,0,0,0,,
,sarim atif,,3,8,8,8,3,0,0,0,0,0,,
,Drummerboyj,,10,8,8,8,3,0,0,0,0,0,,
,Hellvent,,9,8,8,8,3,0,0,0,0,0,,
,jakiro12,,6,8,8,8,3,0,0,0,0,0,,
,Areraneе,,1,8,8,8,3,0,0,0,0,0,,
,DisgustingHuman,,10,16,8,8,3,0,0,0,0,0,,
,GiaLoTa,,1,8,8,8,3,0,0,0,0,0,,
,LegndRicky,,9,8,8,8,3,0,0,0,0,0,,
,Excidium,,9,8,8,8,3,0,0,0,0,0,,
,ZhiBo,,4,10,8,8,3,0,0,0,0,0,,
,OlyaVL11,,4,18,8,8,3,0,0,0,0,0,,
,⅋,,6,9,8,8,3,0,0,0,0,0,,
,Channel9,,3,8,8,8,3,0,0,0,0,0,,
,Oxn,,9,34,8,8,3,0,0,1,0,0,,
,0x7d31apuz,,10,67,8,8,3,0,0,1,0,0,,
,ForlornHope,,7,8,8,8,3,0,0,0,0,0,,
,KairosMGW,,1,8,8,8,3,0,0,0,0,0,,
,freedom2020,,7,8,8,8,3,0,0,0,0,0,,
,emiliomorles,,7,8,8,8,3,0,0,0,0,0,,
,teawaterwire,,6,8,8,8,3,0,0,0,0,0,,
,Zeqro,,6,8,8,8,3,0,0,0,0,0,,
,iflion,,8,8,8,8,3,0,0,0,0,0,,
,sebstar123,,6,8,8,8,3,0,0,0,0,0,,
,MekMirek,,5,8,8,8,3,0,0,0,0,0,,
,Swen 122,,7,9,8,8,3,0,0,0,0,0,,
,levelup,,12,8,8,8,3,0,0,0,0,0,,
,Pidda1994,,10,32,8,8,3,0,0,1,0,0,,
,Sadness,,1,8,8,8,3,0,0,0,0,0,,
,MustangKirby,,8,35,8,8,3,0,0,1,0,0,,
,goldemon,,8,8,8,8,3,0,0,0,0,0,,
,ill_coin,,4,8,8,8,3,0,0,0,0,0,,
,bacoor  hbwallet,,7,8,8,8,3,0,0,0,0,0,,
,iantrebeljahr,,7,8,8,8,3,0,0,0,0,0,,
,foggybottom,,6,8,8,8,3,0,0,0,0,0,,
,PijusMagnificus,,8,8,8,8,3,0,0,0,0,0,,
,PCoq,,11,30,8,8,3,0,0,1,0,0,,
,Nyktimené,,7,8,8,8,3,0,0,0,0,0,,
,KhanVovan,,5,10,7,7,2,0,0,0,0,0,,
,mohu,,12,7,7,7,2,0,0,0,0,0,,
,BallNChained,,8,7,7,7,2,0,0,0,0,0,,
,vanish,,1,7,7,7,2,0,0,0,0,0,,
,YetiDotETH,,10,7,7,7,2,0,0,0,0,0,,
,Kietelaar,,8,10,7,7,2,0,0,0,0,0,,
,اکویٹا,,12,30,7,7,2,0,0,1,0,0,,
,jonekk,,8,7,7,7,2,0,0,0,0,0,,
,JohnConner,,1,8,7,7,2,0,0,0,0,0,,
,お金猫,,12,7,7,7,2,0,0,0,0,0,,
,SheNut,,8,21,7,7,2,0,0,0,0,0,,
,TheRealGinger,,1,7,7,7,2,0,0,0,0,0,,
,fwibb.jmm,,3,7,7,7,2,0,0,0,0,0,,
,DaCatzMeow,,9,7,7,7,2,0,0,0,0,0,,
,Yanicroft,,1,7,7,7,2,0,0,0,0,0,,
,[Taiga] VOLK,,12,7,7,7,2,0,0,0,0,0,,
,Spartakush,,5,7,7,7,2,0,0,0,0,0,,
,John McClane,,12,7,7,7,2,0,0,0,0,0,,
,reymon,,9,7,7,7,2,0,0,0,0,0,,
,Bane3201,,1,7,7,7,2,0,0,0,0,0,,
,kovanova,,8,7,7,7,2,0,0,0,0,0,,
,Surface2AirMissle,,11,7,7,7,2,0,0,0,0,0,,
,Talawanda,,1,7,7,7,2,0,0,0,0,0,,
,Mlexon,,5,7,7,7,2,0,0,0,0,0,,
,Lyffione,,1,7,7,7,2,0,0,0,0,0,,
,Hm47goat,,5,13,7,7,2,0,0,0,0,0,,
,macbaren,,3,7,7,7,2,0,0,0,0,0,,
,$,,9,65,7,7,2,0,0,1,0,0,,
,VIZI,,8,7,7,7,2,0,0,0,0,0,,
,Yurecsuper,,6,10,7,7,2,0,0,0,0,0,,
,Lucky112N,,3,7,7,7,2,0,0,0,0,0,,
,KLMJ,,8,7,7,7,2,0,0,0,0,0,,
,yo.achim,,5,7,7,7,2,0,0,0,0,0,,
,RoadRunner42,,6,6,6,6,2,0,0,0,0,0,,
,papalopodus,,7,6,6,6,2,0,0,0,0,0,,
,TrapCard,,5,6,6,6,2,0,0,0,0,0,,
,Byob75,,11,6,6,6,2,0,0,0,0,0,,
,Rievserg,,8,6,6,6,2,0,0,0,0,0,,
,Ultra-Ice,,4,6,6,6,2,0,0,0,0,0,,
,GamingWithCrypto,,4,6,6,6,2,0,0,0,0,0,,
,-Neoken-,,5,6,6,6,2,0,0,0,0,0,,
,Little_cuckoo,,9,6,6,6,2,0,0,0,0,0,,
,rob31rob31,,7,6,6,6,2,0,0,0,0,0,,
,Wpaladin,,4,6,6,6,2,0,0,0,0,0,,
,kiisumiisu,,1,6,6,6,2,0,0,0,0,0,,
,QuantumTarantino,,5,6,6,6,2,0,0,0,0,0,,
,Foxtail,,4,6,6,6,2,0,0,0,0,0,,
,Isildurrr,,2,29,6,6,2,0,0,0,0,0,,
,skankhunt42,,7,6,6,6,2,0,0,0,0,0,,
,Stake Hunter,,10,14,6,6,2,0,0,0,0,0,,
,♪♪♪♪♪,,10,36,6,6,2,0,0,1,0,0,,
,Headsnap,,8,6,6,6,2,0,0,0,0,0,,
,jcsc1989,,7,6,6,6,2,0,0,0,0,0,,
,EatUrLivers,,7,6,6,6,2,0,0,0,0,0,,
,MAC,,7,7,6,6,2,0,0,0,0,0,,
,barmaley2886,,1,6,6,6,2,0,0,0,0,0,,
,WilliamLee,,6,6,6,6,2,0,0,0,0,0,,
,w/c,,6,6,6,6,2,0,0,0,0,0,,
,Snottysnake,,8,6,6,6,2,0,0,0,0,0,,
,Masha H2,,9,30,6,6,2,0,0,1,0,0,,
,AIDAN420,,6,6,6,6,2,0,0,0,0,0,,
,FSadinoX,,4,7,6,6,2,0,0,0,0,0,,
,DrippSinatra,,5,6,6,6,2,0,0,0,0,0,,
,asil75,,4,6,6,6,2,0,0,0,0,0,,
,OnikriZe,,1,6,6,6,2,0,0,0,0,0,,
,Justinkase,,9,18,6,6,2,0,0,0,0,0,,
,btz4u,,9,5,5,5,2,0,0,0,0,0,,
,romansito,,6,5,5,5,2,0,0,0,0,0,,
,Alukino69,,1,5,5,5,2,0,0,0,0,0,,
,MarijnStevens,,3,5,5,5,2,0,0,0,0,0,,
,n!ghtl!ght,,10,5,5,5,2,0,0,0,0,0,,
,Fl0oRidha,,6,5,5,5,2,0,0,0,0,0,,
,cambocleve,,10,5,5,5,2,0,0,0,0,0,,
,colliseum,,10,5,5,5,2,0,0,0,0,0,,
,Gunimade,,1,5,5,5,2,0,0,0,0,0,,
,WildCard0341,,7,5,5,5,2,0,0,0,0,0,,
,Blain,,7,5,5,5,2,0,0,0,0,0,,
,El Dios Desencadenado,,8,5,5,5,2,0,0,0,0,0,,
,DeusEM,,8,5,5,5,2,0,0,0,0,0,,
,Mage Zyron,,9,5,5,5,2,0,0,0,0,0,,
,Chiantia,,9,5,5,5,2,0,0,0,0,0,,
,Staff Phyre,,3,5,5,5,2,0,0,0,0,0,,
,haneabelow,,4,40,5,5,2,0,0,1,0,0,,
,MarcheG,,4,15,5,5,2,0,0,0,0,0,,
,maragigayan,,8,5,5,5,2,0,0,0,0,0,,
,GOLDRAGON,,11,5,5,5,2,0,0,0,0,0,,
,ArrkinPrimis,,3,5,5,5,2,0,0,0,0,0,,
,~o0GiN0o~,,8,5,5,5,2,0,0,0,0,0,,
,thatkidsblack,,7,5,5,5,2,0,0,0,0,0,,
,Coldsnap,,12,5,5,5,2,0,0,0,0,0,,
,Varick,,9,5,5,5,2,0,0,0,0,0,,
,jcrypto,,5,11,5,5,2,0,0,0,0,0,,
,ranab998,,6,5,5,5,2,0,0,0,0,0,,
,highkitties@gmail.com,,6,5,5,5,2,0,0,0,0,0,,
,athlee,,10,5,5,5,2,0,0,0,0,0,,
,Ptothehyphen,,11,5,5,5,2,0,0,0,0,0,,
,Dikarb89,,4,5,5,5,2,0,0,0,0,0,,
,PrinceH,,8,5,5,5,2,0,0,0,0,0,,
,Jinimage,,7,5,5,5,2,0,0,0,0,0,,
,CrazyShaman,,7,5,5,5,2,0,0,0,0,0,,
,PeterD,,9,5,5,5,2,0,0,0,0,0,,
,Acecompac,,8,5,5,5,2,0,0,0,0,0,,
,Shinjiz,,7,5,5,5,2,0,0,0,0,0,,
,rare,,10,5,5,5,2,0,0,0,0,0,,
,gabrielhagard,,6,5,5,5,2,0,0,0,0,0,,
,CryptoFree,,6,5,5,5,2,0,0,0,0,0,,
,PeakABoo,,12,5,5,5,2,0,0,0,0,0,,
,-=ÐDrîve~ßyE€=-,,4,5,5,5,2,0,0,0,0,0,,
,PHadzhiev,,10,5,5,5,2,0,0,0,0,0,,
,nuclearmonk,,7,4,4,4,1,0,0,0,0,0,,
,gu.cards,,9,4,4,4,1,0,0,0,0,0,,
,TenTon01,,1,4,4,4,1,0,0,0,0,0,,
,Uizy0822,,1,4,4,4,1,0,0,0,0,0,,
,RasmusGrove,,8,4,4,4,1,0,0,0,0,0,,
,MGSPlasmaSnake,,2,4,4,4,1,0,0,0,0,0,,
,alkofullon,,7,4,4,4,1,0,0,0,0,0,,
,NovaFlare,,5,4,4,4,1,0,0,0,0,0,,
,Saint777,,1,4,4,4,1,0,0,0,0,0,,
,Cryptotastic,,11,4,4,4,1,0,0,0,0,0,,
,StarChild,,8,4,4,4,1,0,0,0,0,0,,
,kleber483,,4,4,4,4,1,0,0,0,0,0,,
,KsinGame,,7,4,4,4,1,0,0,0,0,0,,
,cryptokcmo,,1,7,4,4,1,0,0,0,0,0,,
,waffleaber,,3,4,4,4,1,0,0,0,0,0,,
,karjackk,,1,4,4,4,1,0,0,0,0,0,,
,margolisna,,7,4,4,4,1,0,0,0,0,0,,
,Maxz,,9,4,4,4,1,0,0,0,0,0,,
,Chain0tater,,5,4,4,4,1,0,0,0,0,0,,
,Rox,,5,4,4,4,1,0,0,0,0,0,,
,EvgenyyS,,3,4,4,4,1,0,0,0,0,0,,
,Yell,,6,4,4,4,1,0,0,0,0,0,,
,NoT TodaY,,10,4,4,4,1,0,0,0,0,0,,
,LadyMusica,,6,4,4,4,1,0,0,0,0,0,,
,Roberto23,,7,4,4,4,1,0,0,0,0,0,,
,COiNNOiSSEUR,,11,4,4,4,1,0,0,0,0,0,,
,CaptainMurika,,4,4,4,4,1,0,0,0,0,0,,
,gohm,,9,4,4,4,1,0,0,0,0,0,,
,jimTurbo,,7,4,4,4,1,0,0,0,0,0,,
,King_Liamidas,,7,4,4,4,1,0,0,0,0,0,,
,MaxMatheus,,8,4,4,4,1,0,0,0,0,0,,
,moon,,7,4,4,4,1,0,0,0,0,0,,
,bushido,,5,4,4,4,1,0,0,0,0,0,,
,Cryanar,,3,4,4,4,1,0,0,0,0,0,,
,Avatar1188,,4,4,4,4,1,0,0,0,0,0,,
,spaceinvader,,11,4,4,4,1,0,0,0,0,0,,
,Moderntaker,,1,4,4,4,1,0,0,0,0,0,,
,Natussus,,4,4,4,4,1,0,0,0,0,0,,
,Syonidehyde1165,,6,4,4,4,1,0,0,0,0,0,,
,jiiiklikli,,5,4,4,4,1,0,0,0,0,0,,
,AddaxHD,,8,4,4,4,1,0,0,0,0,0,,
,unruized,,8,3,3,3,1,0,0,0,0,0,,
,BL4NKE7,,9,3,3,3,1,0,0,0,0,0,,
,Jelly2010,,7,3,3,3,1,0,0,0,0,0,,
,Abletom,,11,3,3,3,1,0,0,0,0,0,,
,Keat34,,7,3,3,3,1,0,0,0,0,0,,
,POOKIDS420,,6,3,3,3,1,0,0,0,0,0,,
,SimKonNik,,7,3,3,3,1,0,0,0,0,0,,
,RdrFerreira,,4,3,3,3,1,0,0,0,0,0,,
,GardzeWami,,1,3,3,3,1,0,0,0,0,0,,
,snak3.eth,,4,3,3,3,1,0,0,0,0,0,,
,Cdg,,4,3,3,3,1,0,0,0,0,0,,
,Adels Asumi,,6,3,3,3,1,0,0,0,0,0,,
,DJTWREX27,,1,3,3,3,1,0,0,0,0,0,,
,Tribone,,7,3,3,3,1,0,0,0,0,0,,
,aleks42316,,11,3,3,3,1,0,0,0,0,0,,
,Michael3,,10,3,3,3,1,0,0,0,0,0,,
,NASQWERTY,,1,3,3,3,1,0,0,0,0,0,,
,Wizardof0z,,11,3,3,3,1,0,0,0,0,0,,
,Apexlion,,7,3,3,3,1,0,0,0,0,0,,
,Gypo,,7,3,3,3,1,0,0,0,0,0,,
,ForeverAverage,,9,3,3,3,1,0,0,0,0,0,,
,vogimania,,6,3,3,3,1,0,0,0,0,0,,
,PeriodBloodMouthWash,,7,3,3,3,1,0,0,0,0,0,,
,restb777,,8,3,3,3,1,0,0,0,0,0,,
,Khronosick,,7,3,3,3,1,0,0,0,0,0,,
,Babooshka,,4,21,3,3,1,0,0,0,0,0,,
,force_of_nature,,11,3,3,3,1,0,0,0,0,0,,
,Acryos der Graue,,5,3,3,3,1,0,0,0,0,0,,
,Kodes.au,,1,3,3,3,1,0,0,0,0,0,,
,Schnauzerlover,,1,3,3,3,1,0,0,0,0,0,,
,Indigotribe,,2,3,3,3,1,0,0,0,0,0,,
,Samudabamu,,9,3,3,3,1,0,0,0,0,0,,
,sidais,,6,3,3,3,1,0,0,0,0,0,,
,Storm Toad,,6,3,3,3,1,0,0,0,0,0,,
,Olymp,,6,3,3,3,1,0,0,0,0,0,,
,shadowstep33,,6,3,3,3,1,0,0,0,0,0,,
,masanari,,8,3,3,3,1,0,0,0,0,0,,
,Labelkill,,5,3,3,3,1,0,0,0,0,0,,
,Aliona,,8,3,3,3,1,0,0,0,0,0,,
,AncientCrypto,,4,3,3,3,1,0,0,0,0,0,,
,WizardGospel420,,1,3,3,3,1,0,0,0,0,0,,
,Treborsawi,,9,3,3,3,1,0,0,0,0,0,,
,Mr_*M*E*A*T*,,10,3,3,3,1,0,0,0,0,0,,
,Ragnor8476,,8,3,3,3,1,0,0,0,0,0,,
,concordman,,4,3,3,3,1,0,0,0,0,0,,
,🦁,,12,3,3,3,1,0,0,0,0,0,,
,Jonathan Fullerton,,5,3,3,3,1,0,0,0,0,0,,
,Borosbeatdown,,1,3,3,3,1,0,0,0,0,0,,
,SamWise88,,8,2,2,2,0,0,0,0,0,0,,
,narres2252,,6,2,2,2,0,0,0,0,0,0,,
,nautilus73,,8,2,2,2,0,0,0,0,0,0,,
,menelvagor,,8,2,2,2,0,0,0,0,0,0,,
,blue65,,1,2,2,2,0,0,0,0,0,0,,
,Diego.colnago,,5,2,2,2,0,0,0,0,0,0,,
,Amzinglyrwarded,,5,2,2,2,0,0,0,0,0,0,,
,Bengal176,,7,2,2,2,0,0,0,0,0,0,,
,7figurecrypto.com,,6,2,2,2,0,0,0,0,0,0,,
,DaoChemist,,6,2,2,2,0,0,0,0,0,0,,
,Wilmerfud,,4,2,2,2,0,0,0,0,0,0,,
,Konohime,,8,2,2,2,0,0,0,0,0,0,,
,vampirexgenesis,,7,2,2,2,0,0,0,0,0,0,,
,Jimmer,,12,2,2,2,0,0,0,0,0,0,,
,toomey779,,7,2,2,2,0,0,0,0,0,0,,
,ltdan,,12,2,2,2,0,0,0,0,0,0,,
,rRestless,,4,2,2,2,0,0,0,0,0,0,,
,Bobmynobster,,4,2,2,2,0,0,0,0,0,0,,
,lowrider64,,8,2,2,2,0,0,0,0,0,0,,
,digitamz,,12,2,2,2,0,0,0,0,0,0,,
,stachu,,8,2,2,2,0,0,0,0,0,0,,
,Zedd Ruinstar,,1,2,2,2,0,0,0,0,0,0,,
,�[DT] Drakon-NCP,,7,2,2,2,0,0,0,0,0,0,,
,Caligulae,,10,2,2,2,0,0,0,0,0,0,,
,Nbecerril53o,,1,3,2,2,0,0,0,0,0,0,,
,InfamousYetti,,4,2,2,2,0,0,0,0,0,0,,
,Urbanoid,,11,2,2,2,0,0,0,0,0,0,,
,Sergee25,,7,2,2,2,0,0,0,0,0,0,,
,fullerideas,,5,2,2,2,0,0,0,0,0,0,,
,PuzzleMazl,,8,2,2,2,0,0,0,0,0,0,,
,Lazaroth,,7,2,2,2,0,0,0,0,0,0,,
,MSantis,,2,2,2,2,0,0,0,0,0,0,,
,nmkenji,,4,2,2,2,0,0,0,0,0,0,,
,fd204,,10,2,2,2,0,0,0,0,0,0,,
,axordahaxor,,9,2,2,2,0,0,0,0,0,0,,
,RevzCards,,8,2,2,2,0,0,0,0,0,0,,
,obama,,9,2,2,2,0,0,0,0,0,0,,
,くりくりぷとぷと,,12,2,2,2,0,0,0,0,0,0,,
,Odin,,12,2,2,2,0,0,0,0,0,0,,
,saphst4r,,10,2,2,2,0,0,0,0,0,0,,
,jetjockey,,8,2,2,2,0,0,0,0,0,0,,
,Stepuptotheplate2,,4,2,2,2,0,0,0,0,0,0,,
,KoTZ,,12,2,2,2,0,0,0,0,0,0,,
,Edgecaser,,8,2,2,2,0,0,0,0,0,0,,
,NOXIOUS,,10,2,2,2,0,0,0,0,0,0,,
,sl1200mk5,,8,2,2,2,0,0,0,0,0,0,,
,SneezyDwarf,,9,2,2,2,0,0,0,0,0,0,,
,Ootsg,,9,2,2,2,0,0,0,0,0,0,,
,Badadoose,,3,2,2,2,0,0,0,0,0,0,,
,bang39,,11,2,2,2,0,0,0,0,0,0,,
,JiSen1996,,4,2,2,2,0,0,0,0,0,0,,
,bauntidm,,7,2,2,2,0,0,0,0,0,0,,
,rekomain,,5,2,2,2,0,0,0,0,0,0,,
,TORGOVIY MARKET,,5,2,2,2,0,0,0,0,0,0,,
,Superpassteque,,1,2,2,2,0,0,0,0,0,0,,
,BexRab,,6,2,2,2,0,0,0,0,0,0,,
,adriendarki,,7,2,2,2,0,0,0,0,0,0,,
,AmericanIcarus,,10,2,2,2,0,0,0,0,0,0,,
,Digitt,,10,2,2,2,0,0,0,0,0,0,,
,nihao888,,10,2,2,2,0,0,0,0,0,0,,
,CH1P7,,6,2,2,2,0,0,0,0,0,0,,
,▲,,6,2,2,2,0,0,0,0,0,0,,
,hiroppy,,8,2,2,2,0,0,0,0,0,0,,
,ancestralrecall,,12,2,2,2,0,0,0,0,0,0,,
,Ax-S.C.B,,4,2,2,2,0,0,0,0,0,0,,
,SonGokuBg,,10,2,2,2,0,0,0,0,0,0,,
,Giga_bastart,,3,2,2,2,0,0,0,0,0,0,,
,GEX,,6,2,2,2,0,0,0,0,0,0,,
,mami3crypto,,3,2,2,2,0,0,0,0,0,0,,
,Airwin-apollo,,6,2,2,2,0,0,0,0,0,0,,
,w0t,,9,2,2,2,0,0,0,0,0,0,,
,dezilver,,11,2,2,2,0,0,0,0,0,0,,
,Gumi,,8,2,2,2,0,0,0,0,0,0,,
,Dav3,,5,2,2,2,0,0,0,0,0,0,,
,the.chief,,4,1,1,1,0,0,0,0,0,0,,
,Tdr46,,6,1,1,1,0,0,0,0,0,0,,
,Randalinsky,,7,1,1,1,0,0,0,0,0,0,,
,eul0gy,,3,1,1,1,0,0,0,0,0,0,,
,shock,,11,1,1,1,0,0,0,0,0,0,,
,Blackbird,,5,1,1,1,0,0,0,0,0,0,,
,Holofern,,8,1,1,1,0,0,0,0,0,0,,
,vinnyp34,,5,1,1,1,0,0,0,0,0,0,,
,wiim,,7,1,1,1,0,0,0,0,0,0,,
,Chompetto,,8,1,1,1,0,0,0,0,0,0,,
,ACDC,,5,1,1,1,0,0,0,0,0,0,,
,Lollerskates,,9,1,1,1,0,0,0,0,0,0,,
,doppiabeo,,6,1,1,1,0,0,0,0,0,0,,
,ddddddsdfsdf,,1,1,1,1,0,0,0,0,0,0,,
,EdOnCouch,,9,1,1,1,0,0,0,0,0,0,,
,sergiu,,1,1,1,1,0,0,0,0,0,0,,
,b4nks.ch,,5,1,1,1,0,0,0,0,0,0,,
,Jackimilk,,5,1,1,1,0,0,0,0,0,0,,
,Brymir_Power,,1,3,1,1,0,0,0,0,0,0,,
,Sinaxs123321,,1,1,1,1,0,0,0,0,0,0,,
,shablagoo,,1,1,1,1,0,0,0,0,0,0,,
,Balthazar,,7,1,1,1,0,0,0,0,0,0,,
,gvnench8qz,,1,1,1,1,0,0,0,0,0,0,,
,Bozie,,5,1,1,1,0,0,0,0,0,0,,
,日日日 NCP,,12,1,1,1,0,0,0,0,0,0,,
,Galragg,,10,1,1,1,0,0,0,0,0,0,,
,Bioautomaton,,6,1,1,1,0,0,0,0,0,0,,
,Kiikiaskell,,1,1,1,1,0,0,0,0,0,0,,
,allon,,1,1,1,1,0,0,0,0,0,0,,
,Krilanz93,,8,1,1,1,0,0,0,0,0,0,,
,Ledger94,,1,1,1,1,0,0,0,0,0,0,,
,console,,5,1,1,1,0,0,0,0,0,0,,
,WitchGirlTamara,,5,1,1,1,0,0,0,0,0,0,,
,unimpressive,,8,1,1,1,0,0,0,0,0,0,,
,Acolyte,,9,1,1,1,0,0,0,0,0,0,,
,timotheus,,1,1,1,1,0,0,0,0,0,0,,
,catello78,,7,1,1,1,0,0,0,0,0,0,,
,megro,,5,1,1,1,0,0,0,0,0,0,,
,Petergamer,,6,1,1,1,0,0,0,0,0,0,,
,Blackjewell,,5,1,1,1,0,0,0,0,0,0,,
,ThotHtheAtlanteaN,,9,1,1,1,0,0,0,0,0,0,,
,DamianGT,,1,1,1,1,0,0,0,0,0,0,,
,killerdealer,,1,1,1,1,0,0,0,0,0,0,,
,Artemus,,4,1,1,1,0,0,0,0,0,0,,
,z z Z,,8,1,1,1,0,0,0,0,0,0,,
,yatyatling,,1,1,1,1,0,0,0,0,0,0,,
,coSMIX,,8,1,1,1,0,0,0,0,0,0,,
,BuidloBagins,,12,1,1,1,0,0,0,0,0,0,,
,GoblinKing,,12,1,1,1,0,0,0,0,0,0,,
,matt690,,7,1,1,1,0,0,0,0,0,0,,
,Killax01,,1,1,1,1,0,0,0,0,0,0,,
,Pure_Evil,,5,1,1,1,0,0,0,0,0,0,,
,shadowkill{599],,4,1,1,1,0,0,0,0,0,0,,
,tengchiang,,9,1,1,1,0,0,0,0,0,0,,
,BADMINTONERO16,,2,1,1,1,0,0,0,0,0,0,,
,akndr2142,,7,1,1,1,0,0,0,0,0,0,,
,Tribone,,8,1,1,1,0,0,0,0,0,0,,
,bobcryptolover,,6,1,1,1,0,0,0,0,0,0,,
,MurphyMcManus,,3,1,1,1,0,0,0,0,0,0,,
,Y8Z,,9,1,1,1,0,0,0,0,0,0,,
,Achilles64,,3,1,1,1,0,0,0,0,0,0,,
,Sai,,4,1,1,1,0,0,0,0,0,0,,
,Slay.C.G,,1,1,1,1,0,0,0,0,0,0,,
,Dmitry_Jma,,1,1,1,1,0,0,0,0,0,0,,
,Adamanty,,7,1,1,1,0,0,0,0,0,0,,
,fuck_all,,8,1,1,1,0,0,0,0,0,0,,
,Noshlarr,,10,1,1,1,0,0,0,0,0,0,,
,DinizBR,,5,1,1,1,0,0,0,0,0,0,,
,Zalogoff1980,,1,1,1,1,0,0,0,0,0,0,,
,Sapient1,,9,1,1,1,0,0,0,0,0,0,,
,IronBones,,1,1,1,1,0,0,0,0,0,0,,
,Zippety7,,1,1,1,1,0,0,0,0,0,0,,
,jefferson,,8,1,1,1,0,0,0,0,0,0,,
,Countrymater,,3,2,1,1,0,0,0,0,0,0,,
,Kurtific,,8,1,1,1,0,0,0,0,0,0,,
,GabZzzz,,8,1,1,1,0,0,0,0,0,0,,
,phreakerx,,7,1,1,1,0,0,0,0,0,0,,
,Expired,,9,1,1,1,0,0,0,0,0,0,,
,DeMoN666,,12,1,1,1,0,0,0,0,0,0,,
,TrainTicket,,5,1,1,1,0,0,0,0,0,0,,
,jdeath123,,2,1,1,1,0,0,0,0,0,0,,
,Andres,,4,1,1,1,0,0,0,0,0,0,,
,Rayde,,6,1,1,1,0,0,0,0,0,0,,
,Navies91,,1,1,1,1,0,0,0,0,0,0,,
,Raapst70,,6,1,1,1,0,0,0,0,0,0,,
,killerKirill,,6,1,1,1,0,0,0,0,0,0,,
,exesyy18,,1,1,1,1,0,0,0,0,0,0,,
,Kappacino,,11,1,1,1,0,0,0,0,0,0,,
,Master_Elliott,,3,1,1,1,0,0,0,0,0,0,,
,CrSoVPro,,1,1,1,1,0,0,0,0,0,0,,
,Dochrnix,,9,1,1,1,0,0,0,0,0,0,,
,YSAWallet,,1,1,1,1,0,0,0,0,0,0,,
,God Of War,,8,1,1,1,0,0,0,0,0,0,,
,N0fx,,8,1,1,1,0,0,0,0,0,0,,
,playergu,,7,1,1,1,0,0,0,0,0,0,,
,Dancing_shep,,9,1,1,1,0,0,0,0,0,0,,
,IAMZERG9,,5,1,1,1,0,0,0,0,0,0,,
